
    -----------------------------------------------------------------------
          Psi4: An Open-Source Ab Initio Electronic Structure Package
                               Psi4 1.10 release

                         Git: Rev {} zzzzzzz 


    D. G. A. Smith, L. A. Burns, A. C. Simmonett, R. M. Parrish,
    M. C. Schieber, R. Galvelis, P. Kraus, H. Kruse, R. Di Remigio,
    A. Alenaizan, A. M. James, S. Lehtola, J. P. Misiewicz, M. Scheurer,
    R. A. Shaw, J. B. Schriber, Y. Xie, Z. L. Glick, D. A. Sirianni,
    J. S. O'Brien, J. M. Waldrop, A. Kumar, E. G. Hohenstein,
    B. P. Pritchard, B. R. Brooks, H. F. Schaefer III, A. Yu. Sokolov,
    K. Patkowski, A. E. DePrince III, U. Bozkaya, R. A. King,
    F. A. Evangelista, J. M. Turney, T. D. Crawford, C. D. Sherrill,
    J. Chem. Phys. 152(18) 184108 (2020). https://doi.org/10.1063/5.0006002

                            Additional Code Authors
    E. T. Seidl, C. L. Janssen, E. F. Valeev, M. L. Leininger,
    J. F. Gonthier, R. M. Richard, H. R. McAlexander, M. Saitow, X. Wang,
    P. Verma, M. H. Lechner, A. Jiang, S. Behnle, A. G. Heide,
    M. F. Herbst, D. L. Poole, T. Győri, E. C. Mitchell, J. P. Pederson,
    and A. M. Wallace

             Previous Authors, Complete List of Code Contributors,
                       and Citations for Specific Modules
    https://github.com/psi4/psi4/blob/master/codemeta.json
    https://github.com/psi4/psi4/graphs/contributors
    https://psicode.org/psi4manual/master/introduction.html#citing-psifour

    -----------------------------------------------------------------------


    Psi4 started on: Wednesday, 25 March 2026 04:33PM

    Process ID: 6086
    Host:       Bistromath.dhcp.hunter.cuny.edu
    PSIDATADIR: /Users/mskblackbelt/Developer/ir_visuals_widget/.pixi/envs/default/share/psi4
    Memory:     500.0 MiB
    Threads:    1
    Addons:     a̶d̶c̶c̶, a̶m̶b̶i̶t̶, b̶s̶e̶, c̶c̶t̶3̶, c̶f̶o̶u̶r̶, c̶h̶e̶m̶p̶s̶2̶, c̶p̶p̶e̶, d̶d̶x̶,
                d̶f̶t̶d̶3̶, d̶f̶t̶d̶4̶, dkh, ecpint, einsums, f̶o̶r̶t̶e̶, g̶a̶u̶x̶c̶, g̶c̶p̶,
                g̶d̶m̶a̶, g̶e̶o̶m̶e̶t̶r̶i̶c̶, g̶p̶u̶_̶d̶f̶c̶c̶, i̶n̶t̶e̶g̶r̶a̶t̶o̶r̶x̶x̶,
                i̶p̶i̶, l̶i̶b̶e̶f̶p̶, m̶d̶i̶, m̶p̶2̶d̶, m̶r̶c̶c̶, ooo,
                o̶p̶e̶n̶f̶e̶r̶m̶i̶o̶n̶p̶s̶i̶4̶, pcmsolver, p̶s̶i̶4̶f̶o̶c̶k̶c̶i̶, p̶s̶i̶x̶a̶s̶,
                r̶e̶s̶p̶, s̶i̶m̶i̶n̶t̶, s̶n̶s̶m̶p̶2̶, v̶2̶r̶d̶m̶_̶c̶a̶s̶s̶c̶f̶
2026-03-25:16:33:45,765 WARNING  [psi4.optking:38] Some dependencies such as QCElemental have not yet finished migration to pydantic v2. If issues are encountered please downgrade pydantic or upgrade QCElemental as appropriate
2026-03-25:16:33:45,979 INFO     [psi4.optking.optwrapper:234] Creating a UserComputer
2026-03-25:16:33:45,979 INFO     [psi4.optking.optwrapper:242] 
    			-----------------------------------------

    			 OPTKING 3.0: for geometry optimizations 

    			     By R.A. King, Bethel University     

    			        with contributions from          

    			    A.V. Copan, J. Cayton, A. Heide      

    			-----------------------------------------

    
2026-03-25:16:33:45,979 INFO     [psi4.optking.optwrapper:272] 
		 -- Optimization Parameters --
	GEOM_MAXITER                   =              50
	ALG_GEOM_MAXITER               =              50
	PRINT                          =               1
	OPT_TYPE                       =             MIN
	STEP_TYPE                      =             RFO
	PROGRAM                        =            PSI4
	STEEPEST_DESCENT_TYPE          =         OVERLAP
	CONJUGATE_GRADIENT_TYPE        =        FLETCHER
	OPT_COORDINATES                =        INTERNAL
	RFO_FOLLOW_ROOT                =           False
	RFO_ROOT                       =               0
	ACCEPT_SYMMETRY_BREAKING       =           False
	DYNAMIC_LVL                    =               0
	DYNAMIC_LVL_MAX                =               0
	IRC_STEP_SIZE                  =             0.2
	IRC_DIRECTION                  =         FORWARD
	IRC_POINTS                     =              20
	IRC_MODE                       =          NORMAL
	IRC_CONVERGENCE                =            -0.7
	INTRAFRAG_STEP_LIMIT           =             0.5
	INTRAFRAG_STEP_LIMIT_MIN       =           0.001
	INTRAFRAG_STEP_LIMIT_MAX       =             1.0
	INTERFRAG_STEP_LIMIT           =             0.5
	INTERFRAG_STEP_LIMIT_MIN       =           0.001
	INTERFRAG_STEP_LIMIT_MAX       =             1.0
	ENSURE_BT_CONVERGENCE          =           False
	SIMPLE_STEP_SCALING            =           False
	CONSECUTIVE_BACKSTEPS          =               0
	RFO_NORMALIZATION_MAX          =             100
	RSRFO_ALPHA_MAX                =     100000000.0
	PRINT_TRAJECTORY_XYZ_FILE      =           False
	WRITE_TRAJECTORY               =           False
	FROZEN_DISTANCE                =                
	FROZEN_BEND                    =                
	FROZEN_DIHEDRAL                =                
	FROZEN_OOFP                    =                
	FROZEN_CARTESIAN               =                
	FREEZE_ALL_DIHEDRALS           =           False
	UNFREEZE_DIHEDRALS             =                
	RANGED_DISTANCE                =                
	RANGED_BEND                    =                
	RANGED_DIHEDRAL                =                
	RANGED_OOFP                    =                
	RANGED_CARTESIAN               =                
	EXT_FORCE_DISTANCE             =                
	EXT_FORCE_BEND                 =                
	EXT_FORCE_DIHEDRAL             =                
	EXT_FORCE_OOFP                 =                
	EXT_FORCE_CARTESIAN            =                
	G_CONVERGENCE                  =           QCHEM
	MAX_FORCE_G_CONVERGENCE        =          0.0003
	RMS_FORCE_G_CONVERGENCE        =          0.0003
	MAX_ENERGY_G_CONVERGENCE       =           1e-06
	MAX_DISP_G_CONVERGENCE         =          0.0012
	RMS_DISP_G_CONVERGENCE         =          0.0012
	FLEXIBLE_G_CONVERGENCE         =           False
	HESS_UPDATE                    =            BFGS
	HESS_UPDATE_USE_LAST           =               4
	HESS_UPDATE_LIMIT              =            True
	HESS_UPDATE_LIMIT_MAX          =             1.0
	HESS_UPDATE_LIMIT_SCALE        =             0.5
	HESS_UPDATE_DEN_TOL            =           1e-07
	HESS_UPDATE_DQ_TOL             =             0.5
	CART_HESS_READ                 =           False
	HESSIAN_FILE                   =               .
	FULL_HESS_EVERY                =              -1
	INTRAFRAG_HESS                 =        SCHLEGEL
	H_GUESS_EVERY                  =           False
	BT_MAX_ITER                    =              25
	BT_DX_CONV                     =           1e-07
	BT_DX_RMS_CHANGE_CONV          =           1e-12
	BT_PINV_RCOND                  =           1e-06
	FRAG_MODE                      =          SINGLE
	FRAG_REF_ATOMS                 =              []
	FREEZE_INTRAFRAG               =           False
	INTERFRAG_MODE                 =           FIXED
	ADD_AUXILIARY_BONDS            =           False
	AUXILIARY_BOND_FACTOR          =             2.5
	INTERFRAG_DIST_INV             =           False
	INTERFRAG_COLLINEAR_TOL        =            0.01
	INTERFRAG_COORDS               =              []
	INTERFRAG_HESS                 =         DEFAULT
	COVALENT_CONNECT               =             1.3
	INTERFRAGMENT_CONNECT          =             1.8
	H_BOND_CONNECT                 =             4.3
	INCLUDE_OOFP                   =           False
	TEST_B                         =           False
	TEST_DERIVATIVE_B              =           False
	LINESEARCH_STEP                =             0.1
	LINESEARCH                     =           False
	SD_HESSIAN                     =             1.0
	FIX_VAL_NEAR_PI                =            1.57
	V3D_TORS_ANGLE_LIM             =           0.017
	V3D_TORS_COS_TOL               =           1e-10
	LINEAR_BEND_THRESHOLD          =            3.05
	SMALL_BEND_FIX_THRESHOLD       =            0.35
	REDUNDANT_EVAL_TOL             =           1e-10
	LINEAR_ALGEBRA_TOL             =           1e-10


2026-03-25:16:33:46,654 INFO     [psi4.optking.opt_helper:164] Molsys:

	                            ===> Fragment 1 <== 

	 Z (Atomic Numbers)          Masses                          Geom                  
	       8.000000            15.994915          0.00000000 -0.00100141  0.00000000   
	       1.000000             1.007825          1.73854804 -1.00255625  0.00000000   
	       1.000000             1.007825         -1.73854804 -0.98365899  0.00000000   
	       1.000000             1.007825          0.00000000  2.00210829  0.00000000   

	 - Coordinate -           - BOHR/RAD -       - ANG/DEG -
	 R(1,2)           =         2.006405           1.061744
	 R(1,3)           =         1.997039           1.056788
	 R(1,4)           =         2.003110           1.060000
	 B(2,1,3)         =         2.104491         120.578428
	 B(2,1,4)         =         2.093447         119.945683
	 B(3,1,4)         =         2.085248         119.475889
	 O(2,1,3,4)       =         0.000000           0.000000
	 O(3,1,2,4)       =         0.000000           0.000000
	 O(4,1,2,3)       =         0.000000           0.000000


Scratch directory: /tmp/
2026-03-25:16:33:46,669 INFO     [psi4.driver.task_planner:259] PLANNING Atomic:  keywords={'REFERENCE': 'RHF', 'function_kwargs': {}}
gradient() will perform analytic gradient computation.
2026-03-25:16:33:46,670 INFO     [psi4.driver.driver:638] Compute gradient(): method=hf, basis=6-31g(d,p), molecule=default, nre=12.852044132327432
   => Libint2 <=

    Primary   basis highest AM E, G, H:  7, 6, 3
    Auxiliary basis highest AM E, G, H:  7, 7, 4
    Onebody   basis highest AM E, G, H:  -, -, -
    Solid Harmonics ordering:            Gaussian

*** tstart() called on Bistromath.dhcp.hunter.cuny.edu
*** at Wed Mar 25 16:33:46 2026

   => Loading Basis Set <=

    Name: 6-31G(D,P)
    Role: ORBITAL
    Keyword: BASIS
    atoms 1   entry O          line   149 file /Users/mskblackbelt/Developer/ir_visuals_widget/.pixi/envs/default/share/psi4/basis/6-31g_d_p_.gbs 
    atoms 2-4 entry H          line    44 file /Users/mskblackbelt/Developer/ir_visuals_widget/.pixi/envs/default/share/psi4/basis/6-31g_d_p_.gbs 


         ---------------------------------------------------------
                                   SCF
               by Justin Turney, Rob Parrish, Andy Simmonett
                          and Daniel G. A. Smith
                              RHF Reference
                        1 Threads,    500 MiB Core
         ---------------------------------------------------------

  ==> Geometry <==

    Molecular point group: cs
    Full point group: Cs

    Geometry (in Angstrom), charge = 1, multiplicity = 1:

       Center              X                  Y                   Z               Mass       
    ------------   -----------------  -----------------  -----------------  -----------------
         O            0.000000000000    -0.000529921327     0.000000000000    15.994914619570
         H            0.920000000000    -0.530529921327     0.000000000000     1.007825032230
         H           -0.920000000000    -0.520529921327     0.000000000000     1.007825032230
         H            0.000000000000     1.059470078673     0.000000000000     1.007825032230

  Running in cs symmetry.

  Rotational constants: A =     10.00996  B =      9.85849  C =      4.96682 [cm^-1]
  Rotational constants: A = 300090.97330  B = 295550.01827  C = 148901.59324 [MHz]
  Nuclear repulsion =   12.852044132327432

  Charge       = 1
  Multiplicity = 1
  Electrons    = 10
  Nalpha       = 5
  Nbeta        = 5

  ==> Algorithm <==

  SCF Algorithm Type is DF.
  DIIS enabled.
  MOM disabled.
  Fractional occupation disabled.
  Guess Type is SAD.
  Energy threshold   = 1.00e-08
  Density threshold  = 1.00e-08
  Integral threshold = 1.00e-12

  ==> Primary Basis <==

  Basis Set: 6-31G(D,P)
    Blend: 6-31G(D,P)
    Number of shells: 15
    Number of basis functions: 30
    Number of Cartesian functions: 30
    Spherical Harmonics?: false
    Max angular momentum: 2

   => Loading Basis Set <=

    Name: (6-31G(D,P) AUX)
    Role: JKFIT
    Keyword: DF_BASIS_SCF
    atoms 1   entry O          line   221 file /Users/mskblackbelt/Developer/ir_visuals_widget/.pixi/envs/default/share/psi4/basis/cc-pvdz-jkfit.gbs 
    atoms 2-4 entry H          line    51 file /Users/mskblackbelt/Developer/ir_visuals_widget/.pixi/envs/default/share/psi4/basis/cc-pvdz-jkfit.gbs 

  ==> Integral Setup <==

  DFHelper Memory: AOs need 0.001 GiB; user supplied 0.366 GiB. 
  SCF_SUBTYPE=INCORE selected. In-core MEM_DF algorithm will be used.
  Using in-core AOs.

  ==> MemDFJK: Density-Fitted J/K Matrices <==

    J tasked:                   Yes
    K tasked:                   Yes
    wK tasked:                   No
    OpenMP threads:               1
    Memory [MiB]:               375
    Algorithm:                 Core
    Schwarz Cutoff:           1E-12
    Mask sparsity (%):       0.0000
    Fitting Condition:        1E-10

   => Auxiliary Basis Set <=

  Basis Set: (6-31G(D,P) AUX)
    Blend: CC-PVDZ-JKFIT
    Number of shells: 51
    Number of basis functions: 156
    Number of Cartesian functions: 156
    Spherical Harmonics?: false
    Max angular momentum: 3

  Minimum eigenvalue in the overlap matrix is 2.1640546603E-02.
  Reciprocal condition number of the overlap matrix is 4.3002303163E-03.
    Using symmetric orthogonalization.

  ==> Pre-Iterations <==

  SCF Guess: Superposition of Atomic Densities via on-the-fly atomic UHF (no occupation information).

   -------------------------
    Irrep   Nso     Nmo    
   -------------------------
     A'        23      23 
     A"         7       7 
   -------------------------
    Total      30      30
   -------------------------

  ==> Iterations <==

                           Total Energy        Delta E     RMS |[F,P]|

   @DF-RHF iter SAD:   -77.16851746557377   -7.71685e+01   0.00000e+00 
   @DF-RHF iter   1:   -75.95439500901981    1.21412e+00   3.55575e-02 DIIS/ADIIS
   @DF-RHF iter   2:   -76.18185292966504   -2.27458e-01   2.31448e-02 DIIS/ADIIS
   @DF-RHF iter   3:   -76.28153934897419   -9.96864e-02   2.93065e-03 DIIS/ADIIS
   @DF-RHF iter   4:   -76.28362790961597   -2.08856e-03   2.07221e-04 DIIS/ADIIS
   @DF-RHF iter   5:   -76.28364018011706   -1.22705e-05   1.68576e-05 DIIS
   @DF-RHF iter   6:   -76.28364031857045   -1.38453e-07   2.77294e-06 DIIS
   @DF-RHF iter   7:   -76.28364032252793   -3.95748e-09   3.80170e-07 DIIS
   @DF-RHF iter   8:   -76.28364032260302   -7.50902e-11   3.76321e-08 DIIS
   @DF-RHF iter   9:   -76.28364032260353   -5.11591e-13   3.80874e-09 DIIS
  Energy and wave function converged.


  ==> Post-Iterations <==

    Orbital Energies [Eh]
    ---------------------

    Doubly Occupied:                                                      

       1Ap   -20.989697     2Ap    -1.722173     3Ap    -1.074136  
       4Ap    -1.072125     1App   -0.898116  

    Virtual:                                                              

       5Ap    -0.139369     6Ap    -0.016742     7Ap    -0.015401  
       8Ap     0.614433     9Ap     0.651364    10Ap     0.655245  
       2App    0.789710    11Ap     0.909176    12Ap     0.910467  
      13Ap     1.067110     3App    1.392557     4App    1.394846  
      14Ap     1.935725    15Ap     2.024672    16Ap     2.030963  
      17Ap     2.035411     5App    2.283641     6App    2.564168  
       7App    2.570968    18Ap     2.679187    19Ap     2.688898  
      20Ap     3.156428    21Ap     3.401538    22Ap     3.410341  
      23Ap     3.979248  

    Final Occupation by Irrep:
             Ap   App 
    DOCC [     4,    1 ]
    NA   [     4,    1 ]
    NB   [     4,    1 ]

  @DF-RHF Final Energy:   -76.28364032260353

   => Energetics <=

    Nuclear Repulsion Energy =             12.8520441323274319
    One-Electron Energy =                -126.7588742939155537
    Two-Electron Energy =                  37.6231898389845867
    Total Energy =                        -76.2836403226035316

Computation Completed


Properties will be evaluated at   0.000000,   0.000000,   0.000000 [a0]

Properties computed using the SCF density matrix


 Multipole Moments:

 ------------------------------------------------------------------------------------
     Multipole            Electronic (a.u.)      Nuclear  (a.u.)        Total (a.u.)
 ------------------------------------------------------------------------------------

 L = 1.  Multiply by 2.5417464519 to convert [e a0] to [Debye]
 Dipole X            :          0.0030120            0.0000000            0.0030120
 Dipole Y            :         -0.0011365            0.0078818            0.0067453
 Dipole Z            :          0.0000000            0.0000000            0.0000000
 Magnitude           :                                                    0.0073873

 ------------------------------------------------------------------------------------

*** tstop() called on Bistromath.dhcp.hunter.cuny.edu at Wed Mar 25 16:33:57 2026
Module time:
	user time   =       1.07 seconds =       0.02 minutes
	system time =       0.27 seconds =       0.00 minutes
	total time  =         11 seconds =       0.18 minutes
Total time:
	user time   =       1.07 seconds =       0.02 minutes
	system time =       0.27 seconds =       0.00 minutes
	total time  =         11 seconds =       0.18 minutes

*** tstart() called on Bistromath.dhcp.hunter.cuny.edu
*** at Wed Mar 25 16:33:57 2026


         ------------------------------------------------------------
                                   SCF GRAD                          
                          Rob Parrish, Justin Turney,                
                       Andy Simmonett, and Alex Sokolov              
         ------------------------------------------------------------

  ==> Geometry <==

    Molecular point group: cs
    Full point group: Cs

    Geometry (in Angstrom), charge = 1, multiplicity = 1:

       Center              X                  Y                   Z               Mass       
    ------------   -----------------  -----------------  -----------------  -----------------
         O            0.000000000000    -0.000529921327     0.000000000000    15.994914619570
         H            0.920000000000    -0.530529921327     0.000000000000     1.007825032230
         H           -0.920000000000    -0.520529921327     0.000000000000     1.007825032230
         H            0.000000000000     1.059470078673     0.000000000000     1.007825032230

  Nuclear repulsion =   12.852044132327432

  ==> Basis Set <==

  Basis Set: 6-31G(D,P)
    Blend: 6-31G(D,P)
    Number of shells: 15
    Number of basis functions: 30
    Number of Cartesian functions: 30
    Spherical Harmonics?: false
    Max angular momentum: 2

  ==> DFJKGrad: Density-Fitted SCF Gradients <==

    Gradient:                    1
    J tasked:                  Yes
    K tasked:                  Yes
    wK tasked:                  No
    OpenMP threads:              1
    Integrals threads:           1
    Memory [MiB]:              375
    Schwarz Cutoff:          1E-12
    Fitting Condition:       1E-10

   => Auxiliary Basis Set <=

  Basis Set: (6-31G(D,P) AUX)
    Blend: CC-PVDZ-JKFIT
    Number of shells: 51
    Number of basis functions: 156
    Number of Cartesian functions: 156
    Spherical Harmonics?: false
    Max angular momentum: 3


  -Total Gradient:
     Atom            X                  Y                   Z
    ------   -----------------  -----------------  -----------------
       1       -0.001253970123    -0.002476104029     0.000000000000
       2        0.069216496842    -0.039203745088     0.000000000000
       3       -0.067534748282    -0.037007963161     0.000000000000
       4       -0.000427778437     0.078687812277     0.000000000000


*** tstop() called on Bistromath.dhcp.hunter.cuny.edu at Wed Mar 25 16:33:57 2026
Module time:
	user time   =       0.02 seconds =       0.00 minutes
	system time =       0.00 seconds =       0.00 minutes
	total time  =          0 seconds =       0.00 minutes
Total time:
	user time   =       1.09 seconds =       0.02 minutes
	system time =       0.27 seconds =       0.00 minutes
	total time  =         11 seconds =       0.18 minutes
2026-03-25:16:33:57,174 INFO     [psi4.driver.driver:641] Return gradient(): -76.28364032260353
2026-03-25:16:33:57,174 INFO     [psi4.driver.driver:642] [[-0.00125397 -0.00247610  0.00000000]
 [ 0.06921650 -0.03920375  0.00000000]
 [-0.06753475 -0.03700796  0.00000000]
 [-0.00042778  0.07868781  0.00000000]]

    			-----------------------------------------

    			 OPTKING 3.0: for geometry optimizations 

    			     By R.A. King, Bethel University     

    			        with contributions from          

    			    A.V. Copan, J. Cayton, A. Heide      

    			-----------------------------------------

    
	                            ===> Fragment 1 <== 

	 Z (Atomic Numbers)          Masses                          Geom                  
	       8.000000            15.994915          0.00000000 -0.00100141  0.00000000   
	       1.000000             1.007825          1.73854804 -1.00255625  0.00000000   
	       1.000000             1.007825         -1.73854804 -0.98365899  0.00000000   
	       1.000000             1.007825          0.00000000  2.00210829  0.00000000   

	 - Coordinate -           - BOHR/RAD -       - ANG/DEG -
	 R(1,2)           =         2.006405           1.061744
	 R(1,3)           =         1.997039           1.056788
	 R(1,4)           =         2.003110           1.060000
	 B(2,1,3)         =         2.104491         120.578428
	 B(2,1,4)         =         2.093447         119.945683
	 B(3,1,4)         =         2.085248         119.475889
	 O(2,1,3,4)       =         0.000000           0.000000
	 O(3,1,2,4)       =         0.000000           0.000000
	 O(4,1,2,3)       =         0.000000           0.000000
2026-03-25:16:33:57,178 INFO     [psi4.optking.molsys:944] Projected (PHP) Hessian matrix
	   0.382934   0.000000   0.000000   0.000000   0.000000   0.000000   0.000000
	   0.000000   0.000000
	   0.000000   0.389512   0.000000   0.000000   0.000000   0.000000   0.000000
	   0.000000   0.000000
	   0.000000   0.000000   0.385231   0.000000   0.000000   0.000000   0.000000
	   0.000000   0.000000
	   0.000000   0.000000   0.000000   0.160000   0.000000   0.000000   0.000000
	   0.000000   0.000000
	   0.000000   0.000000   0.000000   0.000000   0.160000   0.000000   0.000000
	   0.000000   0.000000
	   0.000000   0.000000   0.000000   0.000000   0.000000   0.160000   0.000000
	   0.000000   0.000000
	   0.000000   0.000000   0.000000   0.000000   0.000000   0.000000   0.001000
	   0.000000   0.000000
	   0.000000   0.000000   0.000000   0.000000   0.000000   0.000000   0.000000
	   0.001000   0.000000
	   0.000000   0.000000   0.000000   0.000000   0.000000   0.000000   0.000000
	   0.000000   0.001000

2026-03-25:16:33:57,178 INFO     [psi4.optking.opt_helper:182] 
	         Geometry (au)                                       Gradient (au)
   0.0000000000  -0.0010014062   0.0000000000		  -0.0012539701  -0.0024761040   0.0000000000
   1.7385480354  -1.0025562527   0.0000000000		   0.0692164968  -0.0392037451   0.0000000000
  -1.7385480354  -0.9836589914   0.0000000000		  -0.0675347483  -0.0370079632   0.0000000000
   0.0000000000   2.0021082868   0.0000000000		  -0.0004277784   0.0786878123   0.0000000000

2026-03-25:16:33:57,178 INFO     [psi4.optking.stepAlgorithms:929] 	Using RFO solution 1.
2026-03-25:16:33:57,179 INFO     [psi4.optking.displace:100] 	Determining Cartesian step for fragment 1.
2026-03-25:16:33:57,182 INFO     [psi4.optking.displace:415] 	Successfully converged to displaced geometry.
2026-03-25:16:33:57,182 INFO     [psi4.optking.displace:416] 	RMS(dx):  2.865e-08 	Max(dx):  7.267e-08 	RMS(dq):  7.401e-17
2026-03-25:16:33:57,183 INFO     [psi4.optking.displace:172] 

	        --- Internal Coordinate Step in ANG or DEG, aJ/ANG or AJ/DEG ---
	-------------------------------------------------------------------------------
	           Coordinate      Previous         Force          Change          New 
	           ----------      --------        ------          ------        ------
	               R(1,2)       1.06174       -0.65536       -0.09882       0.96292
	               R(1,3)       1.05679       -0.63441       -0.09421       0.96258
	               R(1,4)       1.06000       -0.64829       -0.09723       0.96277
	             B(2,1,3)     120.57843       -0.00008       -0.30007     120.27836
	             B(2,1,4)     119.94568        0.00001        0.02913     119.97481
	             B(3,1,4)     119.47589        0.00007        0.27094     119.74683
	           O(2,1,3,4)       0.00000        0.00000        0.00000       0.00000
	           O(3,1,2,4)       0.00000        0.00000        0.00000       0.00000
	           O(4,1,2,3)       0.00000        0.00000        0.00000       0.00000
	-------------------------------------------------------------------------------

2026-03-25:16:33:57,183 INFO     [psi4.optking.stepAlgorithms:113] 	|target step| :    0.3168202028
2026-03-25:16:33:57,183 INFO     [psi4.optking.stepAlgorithms:114] 	gradient     :   -0.1358218493
2026-03-25:16:33:57,183 INFO     [psi4.optking.stepAlgorithms:115] 	hessian      :    0.3856721400
2026-03-25:16:33:57,183 INFO     [psi4.optking.stepAlgorithms:113] 	|target step| :    0.3168202028
2026-03-25:16:33:57,183 INFO     [psi4.optking.stepAlgorithms:114] 	gradient     :   -0.1358218493
2026-03-25:16:33:57,183 INFO     [psi4.optking.stepAlgorithms:115] 	hessian      :    0.3856721400
2026-03-25:16:33:57,183 INFO     [psi4.optking.stepAlgorithms:206] 	Norm of achieved step-size    0.3168202028
2026-03-25:16:33:57,183 INFO     [psi4.optking.stepAlgorithms:208] 	Norm of achieved step-size (cart):    0.3167839104
2026-03-25:16:33:57,184 INFO     [psi4.optking.opt_helper:164] Molsys:

	                            ===> Fragment 1 <== 

	 Z (Atomic Numbers)          Masses                          Geom                  
	       8.000000            15.994915          0.00075785  0.00179780  0.00000000   
	       1.000000             1.007825          1.57575694 -0.90954733  0.00000000   
	       1.000000             1.007825         -1.57982073 -0.89852706  0.00000000   
	       1.000000             1.007825          0.00330594  1.82116823  0.00000000   

	 - Coordinate -           - BOHR/RAD -       - ANG/DEG -
	 R(1,2)           =         1.819663           0.962924
	 R(1,3)           =         1.819014           0.962581
	 R(1,4)           =         1.819372           0.962770
	 B(2,1,3)         =         2.099253         120.278359
	 B(2,1,4)         =         2.093955         119.974810
	 B(3,1,4)         =         2.089976         119.746831
	 O(2,1,3,4)       =         0.000000           0.000000
	 O(3,1,2,4)       =         0.000000           0.000000
	 O(4,1,2,3)       =         0.000000           0.000000



	        --- Internal Coordinate Step in ANG or DEG, aJ/ANG or AJ/DEG ---
	-------------------------------------------------------------------------------
	           Coordinate      Previous         Force          Change          New 
	           ----------      --------        ------          ------        ------
	               R(1,2)       1.06174       -0.65536       -0.09882       0.96292
	               R(1,3)       1.05679       -0.63441       -0.09421       0.96258
	               R(1,4)       1.06000       -0.64829       -0.09723       0.96277
	             B(2,1,3)     120.57843       -0.00008       -0.30007     120.27836
	             B(2,1,4)     119.94568        0.00001        0.02913     119.97481
	             B(3,1,4)     119.47589        0.00007        0.27094     119.74683
	           O(2,1,3,4)       0.00000        0.00000        0.00000       0.00000
	           O(3,1,2,4)       0.00000        0.00000        0.00000       0.00000
	           O(4,1,2,3)       0.00000        0.00000        0.00000       0.00000
	-------------------------------------------------------------------------------

	                                 ==> Convergence Check <==                                  
    
	Measures of convergence in internal coordinates in au.
    
	Criteria marked as inactive (o), active & met (*), and active & unmet ( ).

	----------------------------------------------------------------------------------------------~
	   Step    Total Energy     Delta E     Max Force     RMS Force      Max Disp      RMS Disp   ~
	----------------------------------------------------------------------------------------------~
	  Convergence Criteria     1.00e-06 *    3.00e-04 *             o    1.20e-03 *             o~
	----------------------------------------------------------------------------------------------~
	     1     -76.28364032   -7.63e+01      7.95e-02      4.53e-02 o    1.87e-01      1.06e-01 o  ~
	----------------------------------------------------------------------------------------------

Next Geometry in Ang 
	Fragment 1 (Ang)

	    O   0.0004010364   0.0009513543   0.0000000000
	    H   0.8338546626  -0.4813117207   0.0000000000
	    H  -0.8360051267  -0.4754800437   0.0000000000
	    H   0.0017494277   0.9637207248   0.0000000000

2026-03-25:16:33:57,184 INFO     [psi4.optking.convcheck:76] Performing convergence check.
2026-03-25:16:33:57,184 INFO     [psi4.optking.convcheck:282] 
	                                 ==> Convergence Check <==                                  
    
	Measures of convergence in internal coordinates in au.
    
	Criteria marked as inactive (o), active & met (*), and active & unmet ( ).

	----------------------------------------------------------------------------------------------~
	   Step    Total Energy     Delta E     Max Force     RMS Force      Max Disp      RMS Disp   ~
	----------------------------------------------------------------------------------------------~
	  Convergence Criteria     1.00e-06 *    3.00e-04 *             o    1.20e-03 *             o~
	----------------------------------------------------------------------------------------------~
	     1     -76.28364032   -7.63e+01      7.95e-02      4.53e-02 o    1.87e-01      1.06e-01 o  ~
	----------------------------------------------------------------------------------------------


2026-03-25:16:33:57,184 INFO     [psi4.optking.stepAlgorithms:296] 	Convergence check returned False

    Structure for next step:
    Molecular point group: cs
    Full point group: Cs

    Geometry (in Angstrom), charge = 1, multiplicity = 1:

    O            0.000085007090    -0.000215937502     0.000000000000
    H            0.833538633279    -0.482479012573     0.000000000000
    H           -0.836321155950    -0.476647335575     0.000000000000
    H            0.001433398463     0.962553433011     0.000000000000


Scratch directory: /tmp/
2026-03-25:16:33:57,199 INFO     [psi4.driver.task_planner:259] PLANNING Atomic:  keywords={'SCF__GUESS': 'READ', 'SCF__INTS_TOLERANCE': 1e-12, 'REFERENCE': 'RHF', 'function_kwargs': {}}
gradient() will perform analytic gradient computation.
2026-03-25:16:33:57,200 INFO     [psi4.driver.driver:638] Compute gradient(): method=hf, basis=6-31g(d,p), molecule=default, nre=14.143545768454576
   => Libint2 <=

    Primary   basis highest AM E, G, H:  7, 6, 3
    Auxiliary basis highest AM E, G, H:  7, 7, 4
    Onebody   basis highest AM E, G, H:  -, -, -
    Solid Harmonics ordering:            Gaussian

*** tstart() called on Bistromath.dhcp.hunter.cuny.edu
*** at Wed Mar 25 16:33:57 2026

   => Loading Basis Set <=

    Name: 6-31G(D,P)
    Role: ORBITAL
    Keyword: BASIS
    atoms 1   entry O          line   149 file /Users/mskblackbelt/Developer/ir_visuals_widget/.pixi/envs/default/share/psi4/basis/6-31g_d_p_.gbs 
    atoms 2-4 entry H          line    44 file /Users/mskblackbelt/Developer/ir_visuals_widget/.pixi/envs/default/share/psi4/basis/6-31g_d_p_.gbs 


         ---------------------------------------------------------
                                   SCF
               by Justin Turney, Rob Parrish, Andy Simmonett
                          and Daniel G. A. Smith
                              RHF Reference
                        1 Threads,    500 MiB Core
         ---------------------------------------------------------

  ==> Geometry <==

    Molecular point group: cs
    Full point group: Cs

    Geometry (in Angstrom), charge = 1, multiplicity = 1:

       Center              X                  Y                   Z               Mass       
    ------------   -----------------  -----------------  -----------------  -----------------
         O            0.000085007090    -0.000215937502     0.000000000000    15.994914619570
         H            0.833538633279    -0.482479012573     0.000000000000     1.007825032230
         H           -0.836321155950    -0.476647335575     0.000000000000     1.007825032230
         H            0.001433398463     0.962553433011     0.000000000000     1.007825032230

  Running in cs symmetry.

  Rotational constants: A =     12.06898  B =     11.99237  C =      6.01528 [cm^-1]
  Rotational constants: A = 361818.89777  B = 359522.21637  C = 180333.45043 [MHz]
  Nuclear repulsion =   14.143545768454576

  Charge       = 1
  Multiplicity = 1
  Electrons    = 10
  Nalpha       = 5
  Nbeta        = 5

  ==> Algorithm <==

  SCF Algorithm Type is DF.
  DIIS enabled.
  MOM disabled.
  Fractional occupation disabled.
  Guess Type is READ.
  Energy threshold   = 1.00e-08
  Density threshold  = 1.00e-08
  Integral threshold = 1.00e-12

  ==> Primary Basis <==

  Basis Set: 6-31G(D,P)
    Blend: 6-31G(D,P)
    Number of shells: 15
    Number of basis functions: 30
    Number of Cartesian functions: 30
    Spherical Harmonics?: false
    Max angular momentum: 2

   => Loading Basis Set <=

    Name: (6-31G(D,P) AUX)
    Role: JKFIT
    Keyword: DF_BASIS_SCF
    atoms 1   entry O          line   221 file /Users/mskblackbelt/Developer/ir_visuals_widget/.pixi/envs/default/share/psi4/basis/cc-pvdz-jkfit.gbs 
    atoms 2-4 entry H          line    51 file /Users/mskblackbelt/Developer/ir_visuals_widget/.pixi/envs/default/share/psi4/basis/cc-pvdz-jkfit.gbs 

   => Loading Basis Set <=

    Name: 6-31G(D,P)
    Role: ORBITAL
    Keyword: BASIS
    atoms 1   entry O          line   149 file /Users/mskblackbelt/Developer/ir_visuals_widget/.pixi/envs/default/share/psi4/basis/6-31g_d_p_.gbs 
    atoms 2-4 entry H          line    44 file /Users/mskblackbelt/Developer/ir_visuals_widget/.pixi/envs/default/share/psi4/basis/6-31g_d_p_.gbs 

  Reading orbitals from file /tmp/planar_h3o.default.6086.180.npy, no projection.

  ==> Integral Setup <==

  DFHelper Memory: AOs need 0.001 GiB; user supplied 0.366 GiB. 
  SCF_SUBTYPE=INCORE selected. In-core MEM_DF algorithm will be used.
  Using in-core AOs.

  ==> MemDFJK: Density-Fitted J/K Matrices <==

    J tasked:                   Yes
    K tasked:                   Yes
    wK tasked:                   No
    OpenMP threads:               1
    Memory [MiB]:               375
    Algorithm:                 Core
    Schwarz Cutoff:           1E-12
    Mask sparsity (%):       0.0000
    Fitting Condition:        1E-10

   => Auxiliary Basis Set <=

  Basis Set: (6-31G(D,P) AUX)
    Blend: CC-PVDZ-JKFIT
    Number of shells: 51
    Number of basis functions: 156
    Number of Cartesian functions: 156
    Spherical Harmonics?: false
    Max angular momentum: 3

  Minimum eigenvalue in the overlap matrix is 1.8482946887E-02.
  Reciprocal condition number of the overlap matrix is 3.4490636827E-03.
    Using symmetric orthogonalization.

  ==> Pre-Iterations <==

  SCF Guess: Orbitals guess was supplied from a previous computation.

   -------------------------------------------------------
    Irrep   Nso     Nmo     Nalpha   Nbeta   Ndocc  Nsocc
   -------------------------------------------------------
     A'        23      23       4       4       4       0
     A"         7       7       1       1       1       0
   -------------------------------------------------------
    Total      30      30       5       5       5       0
   -------------------------------------------------------

  ==> Iterations <==

                           Total Energy        Delta E     RMS |[F,P]|

   @DF-RHF iter   0:   -76.55569543250840   -7.65557e+01   7.73448e-03 
   @DF-RHF iter   1:   -76.30653303341323    2.49162e-01   3.03628e-03 DIIS/ADIIS
   @DF-RHF iter   2:   -76.30825813290186   -1.72510e-03   1.74184e-03 DIIS/ADIIS
   @DF-RHF iter   3:   -76.30879466397342   -5.36531e-04   1.15284e-04 DIIS/ADIIS
   @DF-RHF iter   4:   -76.30879948135561   -4.81738e-06   1.41143e-05 DIIS
   @DF-RHF iter   5:   -76.30879957204864   -9.06930e-08   2.31149e-06 DIIS
   @DF-RHF iter   6:   -76.30879957478258   -2.73394e-09   3.04188e-07 DIIS
   @DF-RHF iter   7:   -76.30879957482811   -4.55316e-11   2.38746e-08 DIIS
   @DF-RHF iter   8:   -76.30879957482834   -2.27374e-13   2.82759e-09 DIIS
  Energy and wave function converged.


  ==> Post-Iterations <==

    Orbital Energies [Eh]
    ---------------------

    Doubly Occupied:                                                      

       1Ap   -21.002352     2Ap    -1.796102     3Ap    -1.151269  
       4Ap    -1.150216     1App   -0.932646  

    Virtual:                                                              

       5Ap    -0.108139     6Ap     0.008273     7Ap     0.008406  
       8Ap     0.662537     9Ap     0.664276    10Ap     0.666273  
       2App    0.768891    11Ap     0.897539    12Ap     0.897846  
      13Ap     1.086634     3App    1.374331     4App    1.375439  
      14Ap     1.972663    15Ap     2.132135    16Ap     2.157140  
      17Ap     2.159963     5App    2.360154     6App    2.676141  
       7App    2.680151    18Ap     2.893446    19Ap     2.897842  
      20Ap     3.341478    21Ap     3.531105    22Ap     3.534240  
      23Ap     4.124939  

    Final Occupation by Irrep:
             Ap   App 
    DOCC [     4,    1 ]
    NA   [     4,    1 ]
    NB   [     4,    1 ]

  @DF-RHF Final Energy:   -76.30879957482834

   => Energetics <=

    Nuclear Repulsion Energy =             14.1435457684545760
    One-Electron Energy =                -128.8395213099781245
    Two-Electron Energy =                  38.3871759666952101
    Total Energy =                        -76.3087995748283419

Computation Completed


Properties will be evaluated at   0.000000,   0.000000,   0.000000 [a0]

Properties computed using the SCF density matrix


 Multipole Moments:

 ------------------------------------------------------------------------------------
     Multipole            Electronic (a.u.)      Nuclear  (a.u.)        Total (a.u.)
 ------------------------------------------------------------------------------------

 L = 1.  Multiply by 2.5417464519 to convert [e a0] to [Debye]
 Dipole X            :          0.0004311           -0.0012644           -0.0008333
 Dipole Y            :         -0.0006325            0.0032117            0.0025793
 Dipole Z            :          0.0000000            0.0000000            0.0000000
 Magnitude           :                                                    0.0027105

 ------------------------------------------------------------------------------------

*** tstop() called on Bistromath.dhcp.hunter.cuny.edu at Wed Mar 25 16:33:57 2026
Module time:
	user time   =       0.07 seconds =       0.00 minutes
	system time =       0.01 seconds =       0.00 minutes
	total time  =          0 seconds =       0.00 minutes
Total time:
	user time   =       1.19 seconds =       0.02 minutes
	system time =       0.28 seconds =       0.00 minutes
	total time  =         11 seconds =       0.18 minutes

*** tstart() called on Bistromath.dhcp.hunter.cuny.edu
*** at Wed Mar 25 16:33:57 2026


         ------------------------------------------------------------
                                   SCF GRAD                          
                          Rob Parrish, Justin Turney,                
                       Andy Simmonett, and Alex Sokolov              
         ------------------------------------------------------------

  ==> Geometry <==

    Molecular point group: cs
    Full point group: Cs

    Geometry (in Angstrom), charge = 1, multiplicity = 1:

       Center              X                  Y                   Z               Mass       
    ------------   -----------------  -----------------  -----------------  -----------------
         O            0.000085007090    -0.000215937502     0.000000000000    15.994914619570
         H            0.833538633279    -0.482479012573     0.000000000000     1.007825032230
         H           -0.836321155950    -0.476647335575     0.000000000000     1.007825032230
         H            0.001433398463     0.962553433011     0.000000000000     1.007825032230

  Nuclear repulsion =   14.143545768454576

  ==> Basis Set <==

  Basis Set: 6-31G(D,P)
    Blend: 6-31G(D,P)
    Number of shells: 15
    Number of basis functions: 30
    Number of Cartesian functions: 30
    Spherical Harmonics?: false
    Max angular momentum: 2

  ==> DFJKGrad: Density-Fitted SCF Gradients <==

    Gradient:                    1
    J tasked:                  Yes
    K tasked:                  Yes
    wK tasked:                  No
    OpenMP threads:              1
    Integrals threads:           1
    Memory [MiB]:              375
    Schwarz Cutoff:          1E-12
    Fitting Condition:       1E-10

   => Auxiliary Basis Set <=

  Basis Set: (6-31G(D,P) AUX)
    Blend: CC-PVDZ-JKFIT
    Number of shells: 51
    Number of basis functions: 156
    Number of Cartesian functions: 156
    Spherical Harmonics?: false
    Max angular momentum: 3


  -Total Gradient:
     Atom            X                  Y                   Z
    ------   -----------------  -----------------  -----------------
       1        0.000074334650    -0.000834714476     0.000000000000
       2        0.004537638900    -0.002234997582     0.000000000000
       3       -0.004362323105    -0.001800388734     0.000000000000
       4       -0.000249650444     0.004870100792     0.000000000000


*** tstop() called on Bistromath.dhcp.hunter.cuny.edu at Wed Mar 25 16:33:57 2026
Module time:
	user time   =       0.02 seconds =       0.00 minutes
	system time =       0.00 seconds =       0.00 minutes
	total time  =          0 seconds =       0.00 minutes
Total time:
	user time   =       1.21 seconds =       0.02 minutes
	system time =       0.28 seconds =       0.00 minutes
	total time  =         11 seconds =       0.18 minutes
2026-03-25:16:33:57,305 INFO     [psi4.driver.driver:641] Return gradient(): -76.30879957482834
2026-03-25:16:33:57,305 INFO     [psi4.driver.driver:642] [[ 0.00007433 -0.00083471  0.00000000]
 [ 0.00453764 -0.00223500  0.00000000]
 [-0.00436232 -0.00180039  0.00000000]
 [-0.00024965  0.00487010  0.00000000]]

    			-----------------------------------------

    			 OPTKING 3.0: for geometry optimizations 

    			     By R.A. King, Bethel University     

    			        with contributions from          

    			    A.V. Copan, J. Cayton, A. Heide      

    			-----------------------------------------

    
	                            ===> Fragment 1 <== 

	 Z (Atomic Numbers)          Masses                          Geom                  
	       8.000000            15.994915          0.00016064 -0.00040806  0.00000000   
	       1.000000             1.007825          1.57515973 -0.91175320  0.00000000   
	       1.000000             1.007825         -1.58041794 -0.90073292  0.00000000   
	       1.000000             1.007825          0.00270873  1.81896237  0.00000000   

	 - Coordinate -           - BOHR/RAD -       - ANG/DEG -
	 R(1,2)           =         1.819663           0.962924
	 R(1,3)           =         1.819014           0.962581
	 R(1,4)           =         1.819372           0.962770
	 B(2,1,3)         =         2.099253         120.278359
	 B(2,1,4)         =         2.093955         119.974810
	 B(3,1,4)         =         2.089976         119.746831
	 O(2,1,3,4)       =         0.000000           0.000000
	 O(3,1,2,4)       =         0.000000           0.000000
	 O(4,1,2,3)       =         0.000000           0.000000
2026-03-25:16:33:57,307 INFO     [psi4.optking.history:269] 	Performing BFGS update.
2026-03-25:16:33:57,308 INFO     [psi4.optking.history:280] 	Using 1 previous steps for update.
2026-03-25:16:33:57,308 INFO     [psi4.optking.history:317] 	Steps to be used in Hessian update:  1

2026-03-25:16:33:57,308 INFO     [psi4.optking.history:418] 	Updated Hessian (in au) 
 	   0.388369   0.005420   0.005525  -0.000629   0.000051   0.000578   0.000000
	   0.000000   0.000000
	   0.005420   0.394912   0.005505  -0.000609   0.000050   0.000560   0.000000
	   0.000000   0.000000
	   0.005525   0.005505   0.390842  -0.000622   0.000051   0.000571   0.000000
	   0.000000   0.000000
	  -0.000629  -0.000609  -0.000622   0.106655  -0.053332  -0.053322   0.000000
	   0.000000   0.000000
	   0.000051   0.000050   0.000051  -0.053332   0.106667  -0.053334   0.000000
	   0.000000   0.000000
	   0.000578   0.000560   0.000571  -0.053322  -0.053334   0.106657   0.000000
	   0.000000   0.000000
	   0.000000   0.000000   0.000000   0.000000   0.000000   0.000000   0.000330
	  -0.000331   0.000334
	   0.000000   0.000000   0.000000   0.000000   0.000000   0.000000  -0.000331
	   0.000333  -0.000335
	   0.000000   0.000000   0.000000   0.000000   0.000000   0.000000   0.000334
	  -0.000335   0.000337

2026-03-25:16:33:57,309 INFO     [psi4.optking.molsys:944] Projected (PHP) Hessian matrix
	   0.388369   0.005420   0.005525  -0.000629   0.000051   0.000578   0.000000
	   0.000000   0.000000
	   0.005420   0.394912   0.005505  -0.000609   0.000050   0.000560   0.000000
	   0.000000   0.000000
	   0.005525   0.005505   0.390842  -0.000622   0.000051   0.000571   0.000000
	   0.000000   0.000000
	  -0.000629  -0.000609  -0.000622   0.106655  -0.053332  -0.053322   0.000000
	   0.000000   0.000000
	   0.000051   0.000050   0.000051  -0.053332   0.106667  -0.053334   0.000000
	   0.000000   0.000000
	   0.000578   0.000560   0.000571  -0.053322  -0.053334   0.106657   0.000000
	   0.000000   0.000000
	   0.000000   0.000000   0.000000   0.000000   0.000000   0.000000   0.000330
	  -0.000331   0.000334
	   0.000000   0.000000   0.000000   0.000000   0.000000   0.000000  -0.000331
	   0.000333  -0.000335
	   0.000000   0.000000   0.000000   0.000000   0.000000   0.000000   0.000334
	  -0.000335   0.000337

2026-03-25:16:33:57,309 INFO     [psi4.optking.opt_helper:182] 
	         Geometry (au)                                       Gradient (au)
   0.0001606401  -0.0004080627   0.0000000000		   0.0000743346  -0.0008347145   0.0000000000
   1.5751597319  -0.9117531950   0.0000000000		   0.0045376389  -0.0022349976   0.0000000000
  -1.5804179377  -0.9007329227   0.0000000000		  -0.0043623231  -0.0018003887   0.0000000000
   0.0027087305   1.8189623695   0.0000000000		  -0.0002496504   0.0048701008   0.0000000000

2026-03-25:16:33:57,310 INFO     [psi4.optking.stepAlgorithms:368] 	Current Step Report 
 
	Current energy:       -76.3087995748
	Energy change for the previous step:
		Actual       :        -0.0251592522
		Projected    :        -0.0215155529

2026-03-25:16:33:57,310 INFO     [psi4.optking.stepAlgorithms:371] 	Energy ratio =    1.16935
2026-03-25:16:33:57,310 INFO     [psi4.optking.stepAlgorithms:399] 	Energy ratio indicates good step.
2026-03-25:16:33:57,310 INFO     [psi4.optking.stepAlgorithms:400] 	Intrafrag trust radius increased to      1.
2026-03-25:16:33:57,310 INFO     [psi4.optking.stepAlgorithms:929] 	Using RFO solution 1.
2026-03-25:16:33:57,311 INFO     [psi4.optking.displace:100] 	Determining Cartesian step for fragment 1.
2026-03-25:16:33:57,314 INFO     [psi4.optking.displace:415] 	Successfully converged to displaced geometry.
2026-03-25:16:33:57,314 INFO     [psi4.optking.displace:416] 	RMS(dx):  6.463e-11 	Max(dx):  1.731e-10 	RMS(dq):  6.326e-15
2026-03-25:16:33:57,315 INFO     [psi4.optking.displace:172] 

	        --- Internal Coordinate Step in ANG or DEG, aJ/ANG or AJ/DEG ---
	-------------------------------------------------------------------------------
	           Coordinate      Previous         Force          Change          New 
	           ----------      --------        ------          ------        ------
	               R(1,2)       0.96292       -0.04158       -0.00670       0.95622
	               R(1,3)       0.96258       -0.03857       -0.00609       0.95649
	               R(1,4)       0.96277       -0.04012       -0.00642       0.95635
	             B(2,1,3)     120.27836       -0.00004       -0.21043     120.06793
	             B(2,1,4)     119.97481        0.00000        0.01838     119.99319
	             B(3,1,4)     119.74683        0.00004        0.19206     119.93889
	           O(2,1,3,4)       0.00000        0.00000        0.00000       0.00000
	           O(3,1,2,4)       0.00000        0.00000        0.00000       0.00000
	           O(4,1,2,3)       0.00000        0.00000        0.00000       0.00000
	-------------------------------------------------------------------------------

2026-03-25:16:33:57,315 INFO     [psi4.optking.stepAlgorithms:113] 	|target step| :    0.0215616927
2026-03-25:16:33:57,315 INFO     [psi4.optking.stepAlgorithms:114] 	gradient     :   -0.0083810793
2026-03-25:16:33:57,315 INFO     [psi4.optking.stepAlgorithms:115] 	hessian      :    0.3885215783
2026-03-25:16:33:57,315 INFO     [psi4.optking.stepAlgorithms:113] 	|target step| :    0.0215616927
2026-03-25:16:33:57,315 INFO     [psi4.optking.stepAlgorithms:114] 	gradient     :   -0.0083810793
2026-03-25:16:33:57,315 INFO     [psi4.optking.stepAlgorithms:115] 	hessian      :    0.3885215783
2026-03-25:16:33:57,315 INFO     [psi4.optking.stepAlgorithms:206] 	Norm of achieved step-size    0.0215616927
2026-03-25:16:33:57,315 INFO     [psi4.optking.stepAlgorithms:208] 	Norm of achieved step-size (cart):    0.0214010409
2026-03-25:16:33:57,316 INFO     [psi4.optking.opt_helper:164] Molsys:

	                            ===> Fragment 1 <== 

	 Z (Atomic Numbers)          Masses                          Geom                  
	       8.000000            15.994915         -0.00027581  0.00105165  0.00000000   
	       1.000000             1.007825          1.56255349 -0.90603038  0.00000000   
	       1.000000             1.007825         -1.56874757 -0.89724816  0.00000000   
	       1.000000             1.007825          0.00408107  1.80829508  0.00000000   

	 - Coordinate -           - BOHR/RAD -       - ANG/DEG -
	 R(1,2)           =         1.806996           0.956221
	 R(1,3)           =         1.807497           0.956486
	 R(1,4)           =         1.807249           0.956355
	 B(2,1,3)         =         2.095581         120.067926
	 B(2,1,4)         =         2.094276         119.993188
	 B(3,1,4)         =         2.093328         119.938886
	 O(2,1,3,4)       =         0.000000           0.000000
	 O(3,1,2,4)       =         0.000000           0.000000
	 O(4,1,2,3)       =         0.000000           0.000000



	        --- Internal Coordinate Step in ANG or DEG, aJ/ANG or AJ/DEG ---
	-------------------------------------------------------------------------------
	           Coordinate      Previous         Force          Change          New 
	           ----------      --------        ------          ------        ------
	               R(1,2)       0.96292       -0.04158       -0.00670       0.95622
	               R(1,3)       0.96258       -0.03857       -0.00609       0.95649
	               R(1,4)       0.96277       -0.04012       -0.00642       0.95635
	             B(2,1,3)     120.27836       -0.00004       -0.21043     120.06793
	             B(2,1,4)     119.97481        0.00000        0.01838     119.99319
	             B(3,1,4)     119.74683        0.00004        0.19206     119.93889
	           O(2,1,3,4)       0.00000        0.00000        0.00000       0.00000
	           O(3,1,2,4)       0.00000        0.00000        0.00000       0.00000
	           O(4,1,2,3)       0.00000        0.00000        0.00000       0.00000
	-------------------------------------------------------------------------------

	                                 ==> Convergence Check <==                                  
    
	Measures of convergence in internal coordinates in au.
    
	Criteria marked as inactive (o), active & met (*), and active & unmet ( ).

	----------------------------------------------------------------------------------------------
	   Step    Total Energy     Delta E     Max Force     RMS Force      Max Disp      RMS Disp   
	----------------------------------------------------------------------------------------------
	  Convergence Criteria     1.00e-06 *    3.00e-04 *             o    1.20e-03 *             o
	----------------------------------------------------------------------------------------------
	     2     -76.30879957   -2.52e-02      5.05e-03      2.82e-03 o    1.27e-02      7.19e-03 o  ~
	----------------------------------------------------------------------------------------------

Next Geometry in Ang 
	Fragment 1 (Ang)

	    O  -0.0001459546   0.0005565100   0.0000000000
	    H   0.8268676961  -0.4794506287   0.0000000000
	    H  -0.8301454657  -0.4748032809   0.0000000000
	    H   0.0021596071   0.9569085469   0.0000000000

2026-03-25:16:33:57,316 INFO     [psi4.optking.convcheck:76] Performing convergence check.
2026-03-25:16:33:57,316 INFO     [psi4.optking.convcheck:282] 
	                                 ==> Convergence Check <==                                  
    
	Measures of convergence in internal coordinates in au.
    
	Criteria marked as inactive (o), active & met (*), and active & unmet ( ).

	----------------------------------------------------------------------------------------------
	   Step    Total Energy     Delta E     Max Force     RMS Force      Max Disp      RMS Disp   
	----------------------------------------------------------------------------------------------
	  Convergence Criteria     1.00e-06 *    3.00e-04 *             o    1.20e-03 *             o
	----------------------------------------------------------------------------------------------
	     2     -76.30879957   -2.52e-02      5.05e-03      2.82e-03 o    1.27e-02      7.19e-03 o  ~
	----------------------------------------------------------------------------------------------


2026-03-25:16:33:57,316 INFO     [psi4.optking.stepAlgorithms:296] 	Convergence check returned False

    Structure for next step:
    Molecular point group: cs
    Full point group: Cs

    Geometry (in Angstrom), charge = 1, multiplicity = 1:

    O            0.000036050490    -0.000052202931     0.000000000000
    H            0.827049701119    -0.480059341677     0.000000000000
    H           -0.829963460683    -0.475411993849     0.000000000000
    H            0.002341612132     0.956299833918     0.000000000000


Scratch directory: /tmp/
2026-03-25:16:33:57,331 INFO     [psi4.driver.task_planner:259] PLANNING Atomic:  keywords={'SCF__GUESS': 'READ', 'SCF__INTS_TOLERANCE': 1e-12, 'REFERENCE': 'RHF', 'function_kwargs': {}}
gradient() will perform analytic gradient computation.
2026-03-25:16:33:57,332 INFO     [psi4.driver.driver:638] Compute gradient(): method=hf, basis=6-31g(d,p), molecule=default, nre=14.238257873751591
   => Libint2 <=

    Primary   basis highest AM E, G, H:  7, 6, 3
    Auxiliary basis highest AM E, G, H:  7, 7, 4
    Onebody   basis highest AM E, G, H:  -, -, -
    Solid Harmonics ordering:            Gaussian

*** tstart() called on Bistromath.dhcp.hunter.cuny.edu
*** at Wed Mar 25 16:33:57 2026

   => Loading Basis Set <=

    Name: 6-31G(D,P)
    Role: ORBITAL
    Keyword: BASIS
    atoms 1   entry O          line   149 file /Users/mskblackbelt/Developer/ir_visuals_widget/.pixi/envs/default/share/psi4/basis/6-31g_d_p_.gbs 
    atoms 2-4 entry H          line    44 file /Users/mskblackbelt/Developer/ir_visuals_widget/.pixi/envs/default/share/psi4/basis/6-31g_d_p_.gbs 


         ---------------------------------------------------------
                                   SCF
               by Justin Turney, Rob Parrish, Andy Simmonett
                          and Daniel G. A. Smith
                              RHF Reference
                        1 Threads,    500 MiB Core
         ---------------------------------------------------------

  ==> Geometry <==

    Molecular point group: cs
    Full point group: Cs

    Geometry (in Angstrom), charge = 1, multiplicity = 1:

       Center              X                  Y                   Z               Mass       
    ------------   -----------------  -----------------  -----------------  -----------------
         O            0.000036050490    -0.000052202931     0.000000000000    15.994914619570
         H            0.827049701119    -0.480059341677     0.000000000000     1.007825032230
         H           -0.829963460683    -0.475411993849     0.000000000000     1.007825032230
         H            0.002341612132     0.956299833918     0.000000000000     1.007825032230

  Running in cs symmetry.

  Rotational constants: A =     12.20077  B =     12.18368  C =      6.09611 [cm^-1]
  Rotational constants: A = 365769.94278  B = 365257.42626  C = 182756.75243 [MHz]
  Nuclear repulsion =   14.238257873751591

  Charge       = 1
  Multiplicity = 1
  Electrons    = 10
  Nalpha       = 5
  Nbeta        = 5

  ==> Algorithm <==

  SCF Algorithm Type is DF.
  DIIS enabled.
  MOM disabled.
  Fractional occupation disabled.
  Guess Type is READ.
  Energy threshold   = 1.00e-08
  Density threshold  = 1.00e-08
  Integral threshold = 1.00e-12

  ==> Primary Basis <==

  Basis Set: 6-31G(D,P)
    Blend: 6-31G(D,P)
    Number of shells: 15
    Number of basis functions: 30
    Number of Cartesian functions: 30
    Spherical Harmonics?: false
    Max angular momentum: 2

   => Loading Basis Set <=

    Name: (6-31G(D,P) AUX)
    Role: JKFIT
    Keyword: DF_BASIS_SCF
    atoms 1   entry O          line   221 file /Users/mskblackbelt/Developer/ir_visuals_widget/.pixi/envs/default/share/psi4/basis/cc-pvdz-jkfit.gbs 
    atoms 2-4 entry H          line    51 file /Users/mskblackbelt/Developer/ir_visuals_widget/.pixi/envs/default/share/psi4/basis/cc-pvdz-jkfit.gbs 

   => Loading Basis Set <=

    Name: 6-31G(D,P)
    Role: ORBITAL
    Keyword: BASIS
    atoms 1   entry O          line   149 file /Users/mskblackbelt/Developer/ir_visuals_widget/.pixi/envs/default/share/psi4/basis/6-31g_d_p_.gbs 
    atoms 2-4 entry H          line    44 file /Users/mskblackbelt/Developer/ir_visuals_widget/.pixi/envs/default/share/psi4/basis/6-31g_d_p_.gbs 

  Reading orbitals from file /tmp/planar_h3o.default.6086.180.npy, no projection.

  ==> Integral Setup <==

  DFHelper Memory: AOs need 0.001 GiB; user supplied 0.366 GiB. 
  SCF_SUBTYPE=INCORE selected. In-core MEM_DF algorithm will be used.
  Using in-core AOs.

  ==> MemDFJK: Density-Fitted J/K Matrices <==

    J tasked:                   Yes
    K tasked:                   Yes
    wK tasked:                   No
    OpenMP threads:               1
    Memory [MiB]:               375
    Algorithm:                 Core
    Schwarz Cutoff:           1E-12
    Mask sparsity (%):       0.0000
    Fitting Condition:        1E-10

   => Auxiliary Basis Set <=

  Basis Set: (6-31G(D,P) AUX)
    Blend: CC-PVDZ-JKFIT
    Number of shells: 51
    Number of basis functions: 156
    Number of Cartesian functions: 156
    Spherical Harmonics?: false
    Max angular momentum: 3

  Minimum eigenvalue in the overlap matrix is 1.8272538802E-02.
  Reciprocal condition number of the overlap matrix is 3.3956344853E-03.
    Using symmetric orthogonalization.

  ==> Pre-Iterations <==

  SCF Guess: Orbitals guess was supplied from a previous computation.

   -------------------------------------------------------
    Irrep   Nso     Nmo     Nalpha   Nbeta   Ndocc  Nsocc
   -------------------------------------------------------
     A'        23      23       4       4       4       0
     A"         7       7       1       1       1       0
   -------------------------------------------------------
    Total      30      30       5       5       5       0
   -------------------------------------------------------

  ==> Iterations <==

                           Total Energy        Delta E     RMS |[F,P]|

   @DF-RHF iter   0:   -76.32808028256468   -7.63281e+01   6.57186e-04 
   @DF-RHF iter   1:   -76.30884139211607    1.92389e-02   2.39176e-04 DIIS/ADIIS
   @DF-RHF iter   2:   -76.30885171720165   -1.03251e-05   1.35804e-04 DIIS/ADIIS
   @DF-RHF iter   3:   -76.30885497999890   -3.26280e-06   8.22085e-06 DIIS
   @DF-RHF iter   4:   -76.30885500364664   -2.36477e-08   9.10765e-07 DIIS
   @DF-RHF iter   5:   -76.30885500399280   -3.46162e-10   1.34845e-07 DIIS
   @DF-RHF iter   6:   -76.30885500400220   -9.39337e-12   2.26699e-08 DIIS
   @DF-RHF iter   7:   -76.30885500400241   -2.13163e-13   2.46445e-09 DIIS
  Energy and wave function converged.


  ==> Post-Iterations <==

    Orbital Energies [Eh]
    ---------------------

    Doubly Occupied:                                                      

       1Ap   -21.003080     2Ap    -1.801397     3Ap    -1.156339  
       4Ap    -1.156030     1App   -0.935013  

    Virtual:                                                              

       5Ap    -0.106214     6Ap     0.009790     7Ap     0.009873  
       8Ap     0.665362     9Ap     0.666055    10Ap     0.667955  
       2App    0.767374    11Ap     0.897548    12Ap     0.897628  
      13Ap     1.087931     3App    1.374062     4App    1.374316  
      14Ap     1.976436    15Ap     2.138822    16Ap     2.166721  
      17Ap     2.167324     5App    2.365911     6App    2.684901  
       7App    2.686027    18Ap     2.910841    19Ap     2.911856  
      20Ap     3.355369    21Ap     3.544292    22Ap     3.545002  
      23Ap     4.138462  

    Final Occupation by Irrep:
             Ap   App 
    DOCC [     4,    1 ]
    NA   [     4,    1 ]
    NB   [     4,    1 ]

  @DF-RHF Final Energy:   -76.30885500400241

   => Energetics <=

    Nuclear Repulsion Energy =             14.2382578737515910
    One-Electron Energy =                -128.9905076921006355
    Two-Electron Energy =                  38.4433948143466253
    Total Energy =                        -76.3088550040024245

Computation Completed


Properties will be evaluated at   0.000000,   0.000000,   0.000000 [a0]

Properties computed using the SCF density matrix


 Multipole Moments:

 ------------------------------------------------------------------------------------
     Multipole            Electronic (a.u.)      Nuclear  (a.u.)        Total (a.u.)
 ------------------------------------------------------------------------------------

 L = 1.  Multiply by 2.5417464519 to convert [e a0] to [Debye]
 Dipole X            :         -0.0000279           -0.0005362           -0.0005641
 Dipole Y            :         -0.0001542            0.0007764            0.0006222
 Dipole Z            :          0.0000000            0.0000000            0.0000000
 Magnitude           :                                                    0.0008399

 ------------------------------------------------------------------------------------

*** tstop() called on Bistromath.dhcp.hunter.cuny.edu at Wed Mar 25 16:33:57 2026
Module time:
	user time   =       0.07 seconds =       0.00 minutes
	system time =       0.01 seconds =       0.00 minutes
	total time  =          0 seconds =       0.00 minutes
Total time:
	user time   =       1.31 seconds =       0.02 minutes
	system time =       0.29 seconds =       0.00 minutes
	total time  =         11 seconds =       0.18 minutes

*** tstart() called on Bistromath.dhcp.hunter.cuny.edu
*** at Wed Mar 25 16:33:57 2026


         ------------------------------------------------------------
                                   SCF GRAD                          
                          Rob Parrish, Justin Turney,                
                       Andy Simmonett, and Alex Sokolov              
         ------------------------------------------------------------

  ==> Geometry <==

    Molecular point group: cs
    Full point group: Cs

    Geometry (in Angstrom), charge = 1, multiplicity = 1:

       Center              X                  Y                   Z               Mass       
    ------------   -----------------  -----------------  -----------------  -----------------
         O            0.000036050490    -0.000052202931     0.000000000000    15.994914619570
         H            0.827049701119    -0.480059341677     0.000000000000     1.007825032230
         H           -0.829963460683    -0.475411993849     0.000000000000     1.007825032230
         H            0.002341612132     0.956299833918     0.000000000000     1.007825032230

  Nuclear repulsion =   14.238257873751591

  ==> Basis Set <==

  Basis Set: 6-31G(D,P)
    Blend: 6-31G(D,P)
    Number of shells: 15
    Number of basis functions: 30
    Number of Cartesian functions: 30
    Spherical Harmonics?: false
    Max angular momentum: 2

  ==> DFJKGrad: Density-Fitted SCF Gradients <==

    Gradient:                    1
    J tasked:                  Yes
    K tasked:                  Yes
    wK tasked:                  No
    OpenMP threads:              1
    Integrals threads:           1
    Memory [MiB]:              375
    Schwarz Cutoff:          1E-12
    Fitting Condition:       1E-10

   => Auxiliary Basis Set <=

  Basis Set: (6-31G(D,P) AUX)
    Blend: CC-PVDZ-JKFIT
    Number of shells: 51
    Number of basis functions: 156
    Number of Cartesian functions: 156
    Spherical Harmonics?: false
    Max angular momentum: 3


  -Total Gradient:
     Atom            X                  Y                   Z
    ------   -----------------  -----------------  -----------------
       1        0.000338977917    -0.000196603917     0.000000000000
       2       -0.001807053116     0.001147055629     0.000000000000
       3        0.001533905214     0.001046676878     0.000000000000
       4       -0.000065830016    -0.001997128590     0.000000000000


*** tstop() called on Bistromath.dhcp.hunter.cuny.edu at Wed Mar 25 16:33:57 2026
Module time:
	user time   =       0.02 seconds =       0.00 minutes
	system time =       0.00 seconds =       0.00 minutes
	total time  =          0 seconds =       0.00 minutes
Total time:
	user time   =       1.33 seconds =       0.02 minutes
	system time =       0.29 seconds =       0.00 minutes
	total time  =         11 seconds =       0.18 minutes
2026-03-25:16:33:57,433 INFO     [psi4.driver.driver:641] Return gradient(): -76.30885500400241
2026-03-25:16:33:57,434 INFO     [psi4.driver.driver:642] [[ 0.00033898 -0.00019660  0.00000000]
 [-0.00180705  0.00114706  0.00000000]
 [ 0.00153391  0.00104668  0.00000000]
 [-0.00006583 -0.00199713  0.00000000]]

    			-----------------------------------------

    			 OPTKING 3.0: for geometry optimizations 

    			     By R.A. King, Bethel University     

    			        with contributions from          

    			    A.V. Copan, J. Cayton, A. Heide      

    			-----------------------------------------

    
	                            ===> Fragment 1 <== 

	 Z (Atomic Numbers)          Masses                          Geom                  
	       8.000000            15.994915          0.00006813 -0.00009865  0.00000000   
	       1.000000             1.007825          1.56289743 -0.90718068  0.00000000   
	       1.000000             1.007825         -1.56840363 -0.89839847  0.00000000   
	       1.000000             1.007825          0.00442501  1.80714478  0.00000000   

	 - Coordinate -           - BOHR/RAD -       - ANG/DEG -
	 R(1,2)           =         1.806996           0.956221
	 R(1,3)           =         1.807497           0.956486
	 R(1,4)           =         1.807249           0.956355
	 B(2,1,3)         =         2.095581         120.067926
	 B(2,1,4)         =         2.094276         119.993188
	 B(3,1,4)         =         2.093328         119.938886
	 O(2,1,3,4)       =         0.000000           0.000000
	 O(3,1,2,4)       =         0.000000           0.000000
	 O(4,1,2,3)       =         0.000000           0.000000
2026-03-25:16:33:57,436 INFO     [psi4.optking.history:269] 	Performing BFGS update.
2026-03-25:16:33:57,436 INFO     [psi4.optking.history:280] 	Using 2 previous steps for update.
2026-03-25:16:33:57,437 INFO     [psi4.optking.history:317] 	Steps to be used in Hessian update:  2 1

2026-03-25:16:33:57,438 INFO     [psi4.optking.history:418] 	Updated Hessian (in au) 
 	   0.392357   0.008754   0.009181  -0.000774   0.000069   0.000705   0.000000
	   0.000000   0.000000
	   0.008754   0.397918   0.008686  -0.000889   0.000077   0.000813   0.000000
	   0.000000   0.000000
	   0.009181   0.008686   0.394266  -0.000823   0.000072   0.000751   0.000000
	   0.000000   0.000000
	  -0.000774  -0.000889  -0.000823   0.105609  -0.053237  -0.052372   0.000000
	   0.000000   0.000000
	   0.000069   0.000077   0.000072  -0.053237   0.106658  -0.053421   0.000000
	   0.000000   0.000000
	   0.000705   0.000813   0.000751  -0.052372  -0.053421   0.105793   0.000000
	   0.000000   0.000000
	   0.000000   0.000000   0.000000   0.000000   0.000000   0.000000   0.000332
	  -0.000332   0.000333
	   0.000000   0.000000   0.000000   0.000000   0.000000   0.000000  -0.000332
	   0.000333  -0.000334
	   0.000000   0.000000   0.000000   0.000000   0.000000   0.000000   0.000333
	  -0.000334   0.000335

2026-03-25:16:33:57,438 INFO     [psi4.optking.molsys:944] Projected (PHP) Hessian matrix
	   0.392357   0.008754   0.009181  -0.000774   0.000069   0.000705   0.000000
	   0.000000   0.000000
	   0.008754   0.397918   0.008686  -0.000889   0.000077   0.000813   0.000000
	   0.000000   0.000000
	   0.009181   0.008686   0.394266  -0.000823   0.000072   0.000751   0.000000
	   0.000000   0.000000
	  -0.000774  -0.000889  -0.000823   0.105609  -0.053237  -0.052372   0.000000
	   0.000000   0.000000
	   0.000069   0.000077   0.000072  -0.053237   0.106658  -0.053421   0.000000
	   0.000000   0.000000
	   0.000705   0.000813   0.000751  -0.052372  -0.053421   0.105793   0.000000
	   0.000000   0.000000
	   0.000000   0.000000   0.000000   0.000000   0.000000   0.000000   0.000332
	  -0.000332   0.000333
	   0.000000   0.000000   0.000000   0.000000   0.000000   0.000000  -0.000332
	   0.000333  -0.000334
	   0.000000   0.000000   0.000000   0.000000   0.000000   0.000000   0.000333
	  -0.000334   0.000335

2026-03-25:16:33:57,438 INFO     [psi4.optking.opt_helper:182] 
	         Geometry (au)                                       Gradient (au)
   0.0000681256  -0.0000986492   0.0000000000		   0.0003389779  -0.0001966039   0.0000000000
   1.5628974273  -0.9071806797   0.0000000000		  -0.0018070531   0.0011470556   0.0000000000
  -1.5684036348  -0.8983984651   0.0000000000		   0.0015339052   0.0010466769   0.0000000000
   0.0044250056   1.8071447799   0.0000000000		  -0.0000658300  -0.0019971286   0.0000000000

2026-03-25:16:33:57,439 INFO     [psi4.optking.stepAlgorithms:368] 	Current Step Report 
 
	Current energy:       -76.3088550040
	Energy change for the previous step:
		Actual       :        -0.0000554292
		Projected    :        -0.0000903551

2026-03-25:16:33:57,439 INFO     [psi4.optking.stepAlgorithms:371] 	Energy ratio =    0.61346
2026-03-25:16:33:57,439 INFO     [psi4.optking.stepAlgorithms:929] 	Using RFO solution 1.
2026-03-25:16:33:57,440 INFO     [psi4.optking.displace:100] 	Determining Cartesian step for fragment 1.
2026-03-25:16:33:57,442 INFO     [psi4.optking.displace:415] 	Successfully converged to displaced geometry.
2026-03-25:16:33:57,442 INFO     [psi4.optking.displace:416] 	RMS(dx):  4.446e-13 	Max(dx):  1.043e-12 	RMS(dq):  1.427e-14
2026-03-25:16:33:57,443 INFO     [psi4.optking.displace:172] 

	        --- Internal Coordinate Step in ANG or DEG, aJ/ANG or AJ/DEG ---
	-------------------------------------------------------------------------------
	           Coordinate      Previous         Force          Change          New 
	           ----------      --------        ------          ------        ------
	               R(1,2)       0.95622        0.01762        0.00277       0.95899
	               R(1,3)       0.95649        0.01525        0.00234       0.95883
	               R(1,4)       0.95635        0.01646        0.00256       0.95892
	             B(2,1,3)     120.06793       -0.00001       -0.04607     120.02186
	             B(2,1,4)     119.99319        0.00000        0.00484     119.99802
	             B(3,1,4)     119.93889        0.00001        0.04123     119.98012
	           O(2,1,3,4)       0.00000        0.00000        0.00000       0.00000
	           O(3,1,2,4)       0.00000        0.00000        0.00000       0.00000
	           O(4,1,2,3)       0.00000        0.00000        0.00000       0.00000
	-------------------------------------------------------------------------------

2026-03-25:16:33:57,444 INFO     [psi4.optking.stepAlgorithms:113] 	|target step| :    0.0084641071
2026-03-25:16:33:57,444 INFO     [psi4.optking.stepAlgorithms:114] 	gradient     :   -0.0034580655
2026-03-25:16:33:57,444 INFO     [psi4.optking.stepAlgorithms:115] 	hessian      :    0.4085271716
2026-03-25:16:33:57,444 INFO     [psi4.optking.stepAlgorithms:113] 	|target step| :    0.0084641071
2026-03-25:16:33:57,444 INFO     [psi4.optking.stepAlgorithms:114] 	gradient     :   -0.0034580655
2026-03-25:16:33:57,444 INFO     [psi4.optking.stepAlgorithms:115] 	hessian      :    0.4085271716
2026-03-25:16:33:57,444 INFO     [psi4.optking.stepAlgorithms:206] 	Norm of achieved step-size    0.0084641071
2026-03-25:16:33:57,444 INFO     [psi4.optking.stepAlgorithms:208] 	Norm of achieved step-size (cart):    0.0084235129
2026-03-25:16:33:57,444 INFO     [psi4.optking.opt_helper:164] Molsys:

	                            ===> Fragment 1 <== 

	 Z (Atomic Numbers)          Masses                          Geom                  
	       8.000000            15.994915         -0.00024917  0.00021368  0.00000000   
	       1.000000             1.007825          1.56683865 -0.90996065  0.00000000   
	       1.000000             1.007825         -1.57210569 -0.90108509  0.00000000   
	       1.000000             1.007825          0.00450313  1.81229906  0.00000000   

	 - Coordinate -           - BOHR/RAD -       - ANG/DEG -
	 R(1,2)           =         1.812231           0.958991
	 R(1,3)           =         1.811925           0.958829
	 R(1,4)           =         1.812092           0.958918
	 B(2,1,3)         =         2.094777         120.021858
	 B(2,1,4)         =         2.094361         119.998024
	 B(3,1,4)         =         2.094048         119.980118
	 O(2,1,3,4)       =         0.000000           0.000000
	 O(3,1,2,4)       =         0.000000           0.000000
	 O(4,1,2,3)       =         0.000000           0.000000



	        --- Internal Coordinate Step in ANG or DEG, aJ/ANG or AJ/DEG ---
	-------------------------------------------------------------------------------
	           Coordinate      Previous         Force          Change          New 
	           ----------      --------        ------          ------        ------
	               R(1,2)       0.95622        0.01762        0.00277       0.95899
	               R(1,3)       0.95649        0.01525        0.00234       0.95883
	               R(1,4)       0.95635        0.01646        0.00256       0.95892
	             B(2,1,3)     120.06793       -0.00001       -0.04607     120.02186
	             B(2,1,4)     119.99319        0.00000        0.00484     119.99802
	             B(3,1,4)     119.93889        0.00001        0.04123     119.98012
	           O(2,1,3,4)       0.00000        0.00000        0.00000       0.00000
	           O(3,1,2,4)       0.00000        0.00000        0.00000       0.00000
	           O(4,1,2,3)       0.00000        0.00000        0.00000       0.00000
	-------------------------------------------------------------------------------

	                                 ==> Convergence Check <==                                  
    
	Measures of convergence in internal coordinates in au.
    
	Criteria marked as inactive (o), active & met (*), and active & unmet ( ).

	----------------------------------------------------------------------------------------------
	   Step    Total Energy     Delta E     Max Force     RMS Force      Max Disp      RMS Disp   
	----------------------------------------------------------------------------------------------
	  Convergence Criteria     1.00e-06 *    3.00e-04 *             o    1.20e-03 *             o
	----------------------------------------------------------------------------------------------
	     3     -76.30885500   -5.54e-05      2.14e-03      1.16e-03 o    5.24e-03      2.82e-03 o  ~
	----------------------------------------------------------------------------------------------

Next Geometry in Ang 
	Fragment 1 (Ang)

	    O  -0.0001318576   0.0001130723   0.0000000000
	    H   0.8291353083  -0.4815304402   0.0000000000
	    H  -0.8319225026  -0.4768336959   0.0000000000
	    H   0.0023829550   0.9590273593   0.0000000000

2026-03-25:16:33:57,444 INFO     [psi4.optking.convcheck:76] Performing convergence check.
2026-03-25:16:33:57,445 INFO     [psi4.optking.convcheck:282] 
	                                 ==> Convergence Check <==                                  
    
	Measures of convergence in internal coordinates in au.
    
	Criteria marked as inactive (o), active & met (*), and active & unmet ( ).

	----------------------------------------------------------------------------------------------
	   Step    Total Energy     Delta E     Max Force     RMS Force      Max Disp      RMS Disp   
	----------------------------------------------------------------------------------------------
	  Convergence Criteria     1.00e-06 *    3.00e-04 *             o    1.20e-03 *             o
	----------------------------------------------------------------------------------------------
	     3     -76.30885500   -5.54e-05      2.14e-03      1.16e-03 o    5.24e-03      2.82e-03 o  ~
	----------------------------------------------------------------------------------------------


2026-03-25:16:33:57,445 INFO     [psi4.optking.stepAlgorithms:296] 	Convergence check returned False

    Structure for next step:
    Molecular point group: cs
    Full point group: Cs

    Geometry (in Angstrom), charge = 1, multiplicity = 1:

    O            0.000000459251    -0.000017169789     0.000000000000
    H            0.829267625177    -0.481660682245     0.000000000000
    H           -0.831790185685    -0.476963937991     0.000000000000
    H            0.002515271864     0.958897117251     0.000000000000


Scratch directory: /tmp/
2026-03-25:16:33:57,459 INFO     [psi4.driver.task_planner:259] PLANNING Atomic:  keywords={'SCF__GUESS': 'READ', 'SCF__INTS_TOLERANCE': 1e-12, 'REFERENCE': 'RHF', 'function_kwargs': {}}
gradient() will perform analytic gradient computation.
2026-03-25:16:33:57,461 INFO     [psi4.driver.driver:638] Compute gradient(): method=hf, basis=6-31g(d,p), molecule=default, nre=14.200263912060231
   => Libint2 <=

    Primary   basis highest AM E, G, H:  7, 6, 3
    Auxiliary basis highest AM E, G, H:  7, 7, 4
    Onebody   basis highest AM E, G, H:  -, -, -
    Solid Harmonics ordering:            Gaussian

*** tstart() called on Bistromath.dhcp.hunter.cuny.edu
*** at Wed Mar 25 16:33:57 2026

   => Loading Basis Set <=

    Name: 6-31G(D,P)
    Role: ORBITAL
    Keyword: BASIS
    atoms 1   entry O          line   149 file /Users/mskblackbelt/Developer/ir_visuals_widget/.pixi/envs/default/share/psi4/basis/6-31g_d_p_.gbs 
    atoms 2-4 entry H          line    44 file /Users/mskblackbelt/Developer/ir_visuals_widget/.pixi/envs/default/share/psi4/basis/6-31g_d_p_.gbs 


         ---------------------------------------------------------
                                   SCF
               by Justin Turney, Rob Parrish, Andy Simmonett
                          and Daniel G. A. Smith
                              RHF Reference
                        1 Threads,    500 MiB Core
         ---------------------------------------------------------

  ==> Geometry <==

    Molecular point group: cs
    Full point group: Cs

    Geometry (in Angstrom), charge = 1, multiplicity = 1:

       Center              X                  Y                   Z               Mass       
    ------------   -----------------  -----------------  -----------------  -----------------
         O            0.000000459251    -0.000017169789     0.000000000000    15.994914619570
         H            0.829267625177    -0.481660682245     0.000000000000     1.007825032230
         H           -0.831790185685    -0.476963937991     0.000000000000     1.007825032230
         H            0.002515271864     0.958897117251     0.000000000000     1.007825032230

  Running in cs symmetry.

  Rotational constants: A =     12.13082  B =     12.12366  C =      6.06362 [cm^-1]
  Rotational constants: A = 363672.68663  B = 363458.19881  C = 181782.70554 [MHz]
  Nuclear repulsion =   14.200263912060231

  Charge       = 1
  Multiplicity = 1
  Electrons    = 10
  Nalpha       = 5
  Nbeta        = 5

  ==> Algorithm <==

  SCF Algorithm Type is DF.
  DIIS enabled.
  MOM disabled.
  Fractional occupation disabled.
  Guess Type is READ.
  Energy threshold   = 1.00e-08
  Density threshold  = 1.00e-08
  Integral threshold = 1.00e-12

  ==> Primary Basis <==

  Basis Set: 6-31G(D,P)
    Blend: 6-31G(D,P)
    Number of shells: 15
    Number of basis functions: 30
    Number of Cartesian functions: 30
    Spherical Harmonics?: false
    Max angular momentum: 2

   => Loading Basis Set <=

    Name: (6-31G(D,P) AUX)
    Role: JKFIT
    Keyword: DF_BASIS_SCF
    atoms 1   entry O          line   221 file /Users/mskblackbelt/Developer/ir_visuals_widget/.pixi/envs/default/share/psi4/basis/cc-pvdz-jkfit.gbs 
    atoms 2-4 entry H          line    51 file /Users/mskblackbelt/Developer/ir_visuals_widget/.pixi/envs/default/share/psi4/basis/cc-pvdz-jkfit.gbs 

   => Loading Basis Set <=

    Name: 6-31G(D,P)
    Role: ORBITAL
    Keyword: BASIS
    atoms 1   entry O          line   149 file /Users/mskblackbelt/Developer/ir_visuals_widget/.pixi/envs/default/share/psi4/basis/6-31g_d_p_.gbs 
    atoms 2-4 entry H          line    44 file /Users/mskblackbelt/Developer/ir_visuals_widget/.pixi/envs/default/share/psi4/basis/6-31g_d_p_.gbs 

  Reading orbitals from file /tmp/planar_h3o.default.6086.180.npy, no projection.

  ==> Integral Setup <==

  DFHelper Memory: AOs need 0.001 GiB; user supplied 0.366 GiB. 
  SCF_SUBTYPE=INCORE selected. In-core MEM_DF algorithm will be used.
  Using in-core AOs.

  ==> MemDFJK: Density-Fitted J/K Matrices <==

    J tasked:                   Yes
    K tasked:                   Yes
    wK tasked:                   No
    OpenMP threads:               1
    Memory [MiB]:               375
    Algorithm:                 Core
    Schwarz Cutoff:           1E-12
    Mask sparsity (%):       0.0000
    Fitting Condition:        1E-10

   => Auxiliary Basis Set <=

  Basis Set: (6-31G(D,P) AUX)
    Blend: CC-PVDZ-JKFIT
    Number of shells: 51
    Number of basis functions: 156
    Number of Cartesian functions: 156
    Spherical Harmonics?: false
    Max angular momentum: 3

  Minimum eigenvalue in the overlap matrix is 1.8356558182E-02.
  Reciprocal condition number of the overlap matrix is 3.4169269517E-03.
    Using symmetric orthogonalization.

  ==> Pre-Iterations <==

  SCF Guess: Orbitals guess was supplied from a previous computation.

   -------------------------------------------------------
    Irrep   Nso     Nmo     Nalpha   Nbeta   Ndocc  Nsocc
   -------------------------------------------------------
     A'        23      23       4       4       4       0
     A"         7       7       1       1       1       0
   -------------------------------------------------------
    Total      30      30       5       5       5       0
   -------------------------------------------------------

  ==> Iterations <==

                           Total Energy        Delta E     RMS |[F,P]|

   @DF-RHF iter   0:   -76.30110081015314   -7.63011e+01   2.66481e-04 
   @DF-RHF iter   1:   -76.30886167402807   -7.76086e-03   9.68951e-05 DIIS
   @DF-RHF iter   2:   -76.30886336020686   -1.68618e-06   5.51575e-05 DIIS
   @DF-RHF iter   3:   -76.30886389937685   -5.39170e-07   3.29904e-06 DIIS
   @DF-RHF iter   4:   -76.30886390316027   -3.78343e-09   3.61267e-07 DIIS
   @DF-RHF iter   5:   -76.30886390321436   -5.40865e-11   5.47170e-08 DIIS
   @DF-RHF iter   6:   -76.30886390321578   -1.42109e-12   1.06390e-08 DIIS
   @DF-RHF iter   7:   -76.30886390321579   -1.42109e-14   1.32221e-09 DIIS
  Energy and wave function converged.


  ==> Post-Iterations <==

    Orbital Energies [Eh]
    ---------------------

    Doubly Occupied:                                                      

       1Ap   -21.002791     2Ap    -1.799275     3Ap    -1.154046  
       4Ap    -1.153965     1App   -0.934066  

    Virtual:                                                              

       5Ap    -0.106979     6Ap     0.009219     7Ap     0.009257  
       8Ap     0.665200     9Ap     0.665395    10Ap     0.666241  
       2App    0.767982    11Ap     0.897605    12Ap     0.897627  
      13Ap     1.087412     3App    1.374412     4App    1.374506  
      14Ap     1.974919    15Ap     2.136163    16Ap     2.163472  
      17Ap     2.163775     5App    2.363603     6App    2.682388  
       7App    2.682690    18Ap     2.904869    19Ap     2.905242  
      20Ap     3.349803    21Ap     3.539663    22Ap     3.539920  
      23Ap     4.132940  

    Final Occupation by Irrep:
             Ap   App 
    DOCC [     4,    1 ]
    NA   [     4,    1 ]
    NB   [     4,    1 ]

  @DF-RHF Final Energy:   -76.30886390321579

   => Energetics <=

    Nuclear Repulsion Energy =             14.2002639120602314
    One-Electron Energy =                -128.9299679337435407
    Two-Electron Energy =                  38.4208401184675097
    Total Energy =                        -76.3088639032157943

Computation Completed


Properties will be evaluated at   0.000000,   0.000000,   0.000000 [a0]

Properties computed using the SCF density matrix


 Multipole Moments:

 ------------------------------------------------------------------------------------
     Multipole            Electronic (a.u.)      Nuclear  (a.u.)        Total (a.u.)
 ------------------------------------------------------------------------------------

 L = 1.  Multiply by 2.5417464519 to convert [e a0] to [Debye]
 Dipole X            :          0.0000842           -0.0000068            0.0000774
 Dipole Y            :         -0.0000471            0.0002554            0.0002083
 Dipole Z            :          0.0000000            0.0000000            0.0000000
 Magnitude           :                                                    0.0002222

 ------------------------------------------------------------------------------------

*** tstop() called on Bistromath.dhcp.hunter.cuny.edu at Wed Mar 25 16:33:57 2026
Module time:
	user time   =       0.07 seconds =       0.00 minutes
	system time =       0.01 seconds =       0.00 minutes
	total time  =          0 seconds =       0.00 minutes
Total time:
	user time   =       1.43 seconds =       0.02 minutes
	system time =       0.30 seconds =       0.01 minutes
	total time  =         11 seconds =       0.18 minutes

*** tstart() called on Bistromath.dhcp.hunter.cuny.edu
*** at Wed Mar 25 16:33:57 2026


         ------------------------------------------------------------
                                   SCF GRAD                          
                          Rob Parrish, Justin Turney,                
                       Andy Simmonett, and Alex Sokolov              
         ------------------------------------------------------------

  ==> Geometry <==

    Molecular point group: cs
    Full point group: Cs

    Geometry (in Angstrom), charge = 1, multiplicity = 1:

       Center              X                  Y                   Z               Mass       
    ------------   -----------------  -----------------  -----------------  -----------------
         O            0.000000459251    -0.000017169789     0.000000000000    15.994914619570
         H            0.829267625177    -0.481660682245     0.000000000000     1.007825032230
         H           -0.831790185685    -0.476963937991     0.000000000000     1.007825032230
         H            0.002515271864     0.958897117251     0.000000000000     1.007825032230

  Nuclear repulsion =   14.200263912060231

  ==> Basis Set <==

  Basis Set: 6-31G(D,P)
    Blend: 6-31G(D,P)
    Number of shells: 15
    Number of basis functions: 30
    Number of Cartesian functions: 30
    Spherical Harmonics?: false
    Max angular momentum: 2

  ==> DFJKGrad: Density-Fitted SCF Gradients <==

    Gradient:                    1
    J tasked:                  Yes
    K tasked:                  Yes
    wK tasked:                  No
    OpenMP threads:              1
    Integrals threads:           1
    Memory [MiB]:              375
    Schwarz Cutoff:          1E-12
    Fitting Condition:       1E-10

   => Auxiliary Basis Set <=

  Basis Set: (6-31G(D,P) AUX)
    Blend: CC-PVDZ-JKFIT
    Number of shells: 51
    Number of basis functions: 156
    Number of Cartesian functions: 156
    Spherical Harmonics?: false
    Max angular momentum: 3


  -Total Gradient:
     Atom            X                  Y                   Z
    ------   -----------------  -----------------  -----------------
       1       -0.000120077039    -0.000070490969     0.000000000000
       2        0.000763182251    -0.000412405950     0.000000000000
       3       -0.000624639898    -0.000303739912     0.000000000000
       4       -0.000018465314     0.000786636831     0.000000000000


*** tstop() called on Bistromath.dhcp.hunter.cuny.edu at Wed Mar 25 16:33:57 2026
Module time:
	user time   =       0.01 seconds =       0.00 minutes
	system time =       0.00 seconds =       0.00 minutes
	total time  =          0 seconds =       0.00 minutes
Total time:
	user time   =       1.44 seconds =       0.02 minutes
	system time =       0.30 seconds =       0.01 minutes
	total time  =         11 seconds =       0.18 minutes
2026-03-25:16:33:57,559 INFO     [psi4.driver.driver:641] Return gradient(): -76.3088639032158
2026-03-25:16:33:57,559 INFO     [psi4.driver.driver:642] [[-0.00012008 -0.00007049  0.00000000]
 [ 0.00076318 -0.00041241  0.00000000]
 [-0.00062464 -0.00030374  0.00000000]
 [-0.00001847  0.00078664  0.00000000]]

    			-----------------------------------------

    			 OPTKING 3.0: for geometry optimizations 

    			     By R.A. King, Bethel University     

    			        with contributions from          

    			    A.V. Copan, J. Cayton, A. Heide      

    			-----------------------------------------

    
	                            ===> Fragment 1 <== 

	 Z (Atomic Numbers)          Masses                          Geom                  
	       8.000000            15.994915          0.00000087 -0.00003245  0.00000000   
	       1.000000             1.007825          1.56708870 -0.91020677  0.00000000   
	       1.000000             1.007825         -1.57185564 -0.90133121  0.00000000   
	       1.000000             1.007825          0.00475317  1.81205293  0.00000000   

	 - Coordinate -           - BOHR/RAD -       - ANG/DEG -
	 R(1,2)           =         1.812231           0.958991
	 R(1,3)           =         1.811925           0.958829
	 R(1,4)           =         1.812092           0.958918
	 B(2,1,3)         =         2.094777         120.021858
	 B(2,1,4)         =         2.094361         119.998024
	 B(3,1,4)         =         2.094048         119.980118
	 O(2,1,3,4)       =         0.000000           0.000000
	 O(3,1,2,4)       =         0.000000           0.000000
	 O(4,1,2,3)       =         0.000000           0.000000
2026-03-25:16:33:57,561 INFO     [psi4.optking.history:269] 	Performing BFGS update.
2026-03-25:16:33:57,562 INFO     [psi4.optking.history:280] 	Using 3 previous steps for update.
2026-03-25:16:33:57,562 INFO     [psi4.optking.history:317] 	Steps to be used in Hessian update:  3 2 1

2026-03-25:16:33:57,564 INFO     [psi4.optking.history:418] 	Updated Hessian (in au) 
 	   0.390995   0.007100   0.007675  -0.001269   0.000115   0.001154   0.000000
	   0.000000   0.000000
	   0.007100   0.397130   0.007445  -0.000257   0.000016   0.000241   0.000000
	   0.000000   0.000000
	   0.007675   0.007445   0.392884  -0.000848   0.000073   0.000775   0.000000
	   0.000000   0.000000
	  -0.001269  -0.000257  -0.000848   0.102194  -0.052919  -0.049275   0.000000
	   0.000000   0.000000
	   0.000115   0.000016   0.000073  -0.052919   0.106628  -0.053709   0.000000
	   0.000000   0.000000
	   0.001154   0.000241   0.000775  -0.049275  -0.053709   0.102984   0.000000
	   0.000000   0.000000
	   0.000000   0.000000   0.000000   0.000000   0.000000   0.000000   0.000333
	  -0.000333   0.000333
	   0.000000   0.000000   0.000000   0.000000   0.000000   0.000000  -0.000333
	   0.000333  -0.000334
	   0.000000   0.000000   0.000000   0.000000   0.000000   0.000000   0.000333
	  -0.000334   0.000334

2026-03-25:16:33:57,564 INFO     [psi4.optking.molsys:944] Projected (PHP) Hessian matrix
	   0.390995   0.007100   0.007675  -0.001269   0.000115   0.001154   0.000000
	   0.000000   0.000000
	   0.007100   0.397130   0.007445  -0.000257   0.000016   0.000241   0.000000
	   0.000000   0.000000
	   0.007675   0.007445   0.392884  -0.000848   0.000073   0.000775   0.000000
	   0.000000   0.000000
	  -0.001269  -0.000257  -0.000848   0.102194  -0.052919  -0.049275   0.000000
	   0.000000   0.000000
	   0.000115   0.000016   0.000073  -0.052919   0.106628  -0.053709   0.000000
	   0.000000   0.000000
	   0.001154   0.000241   0.000775  -0.049275  -0.053709   0.102984   0.000000
	   0.000000   0.000000
	   0.000000   0.000000   0.000000   0.000000   0.000000   0.000000   0.000333
	  -0.000333   0.000333
	   0.000000   0.000000   0.000000   0.000000   0.000000   0.000000  -0.000333
	   0.000333  -0.000334
	   0.000000   0.000000   0.000000   0.000000   0.000000   0.000000   0.000333
	  -0.000334   0.000334

2026-03-25:16:33:57,565 INFO     [psi4.optking.opt_helper:182] 
	         Geometry (au)                                       Gradient (au)
   0.0000008679  -0.0000324462   0.0000000000		  -0.0001200770  -0.0000704910   0.0000000000
   1.5670886963  -0.9102067748   0.0000000000		   0.0007631823  -0.0004124060   0.0000000000
  -1.5718556448  -0.9013312145   0.0000000000		  -0.0006246399  -0.0003037399   0.0000000000
   0.0047531750   1.8120529341   0.0000000000		  -0.0000184653   0.0007866368   0.0000000000

2026-03-25:16:33:57,565 INFO     [psi4.optking.stepAlgorithms:368] 	Current Step Report 
 
	Current energy:       -76.3088639032
	Energy change for the previous step:
		Actual       :        -0.0000088992
		Projected    :        -0.0000146347

2026-03-25:16:33:57,565 INFO     [psi4.optking.stepAlgorithms:371] 	Energy ratio =    0.60809
2026-03-25:16:33:57,565 INFO     [psi4.optking.stepAlgorithms:929] 	Using RFO solution 1.
2026-03-25:16:33:57,566 INFO     [psi4.optking.displace:100] 	Determining Cartesian step for fragment 1.
2026-03-25:16:33:57,568 INFO     [psi4.optking.displace:415] 	Successfully converged to displaced geometry.
2026-03-25:16:33:57,568 INFO     [psi4.optking.displace:416] 	RMS(dx):  1.143e-14 	Max(dx):  3.009e-14 	RMS(dq):  8.483e-13
2026-03-25:16:33:57,569 INFO     [psi4.optking.displace:172] 

	        --- Internal Coordinate Step in ANG or DEG, aJ/ANG or AJ/DEG ---
	-------------------------------------------------------------------------------
	           Coordinate      Previous         Force          Change          New 
	           ----------      --------        ------          ------        ------
	               R(1,2)       0.95899       -0.00714       -0.00114       0.95785
	               R(1,3)       0.95883       -0.00571       -0.00088       0.95795
	               R(1,4)       0.95892       -0.00648       -0.00102       0.95790
	             B(2,1,3)     120.02186       -0.00000       -0.01866     120.00320
	             B(2,1,4)     119.99802        0.00000        0.00157     119.99959
	             B(3,1,4)     119.98012        0.00000        0.01709     119.99721
	           O(2,1,3,4)       0.00000        0.00000        0.00000       0.00000
	           O(3,1,2,4)       0.00000        0.00000        0.00000       0.00000
	           O(4,1,2,3)       0.00000        0.00000        0.00000       0.00000
	-------------------------------------------------------------------------------

2026-03-25:16:33:57,570 INFO     [psi4.optking.stepAlgorithms:113] 	|target step| :    0.0033673056
2026-03-25:16:33:57,570 INFO     [psi4.optking.stepAlgorithms:114] 	gradient     :   -0.0013565047
2026-03-25:16:33:57,570 INFO     [psi4.optking.stepAlgorithms:115] 	hessian      :    0.4028411536
2026-03-25:16:33:57,570 INFO     [psi4.optking.stepAlgorithms:113] 	|target step| :    0.0033673056
2026-03-25:16:33:57,570 INFO     [psi4.optking.stepAlgorithms:114] 	gradient     :   -0.0013565047
2026-03-25:16:33:57,570 INFO     [psi4.optking.stepAlgorithms:115] 	hessian      :    0.4028411536
2026-03-25:16:33:57,570 INFO     [psi4.optking.stepAlgorithms:206] 	Norm of achieved step-size    0.0033673056
2026-03-25:16:33:57,570 INFO     [psi4.optking.stepAlgorithms:208] 	Norm of achieved step-size (cart):    0.0033585035
2026-03-25:16:33:57,570 INFO     [psi4.optking.opt_helper:164] Molsys:

	                            ===> Fragment 1 <== 

	 Z (Atomic Numbers)          Masses                          Geom                  
	       8.000000            15.994915          0.00004393  0.00009990  0.00000000   
	       1.000000             1.007825          1.56516446 -0.90917814  0.00000000   
	       1.000000             1.007825         -1.57017593 -0.90069445  0.00000000   
	       1.000000             1.007825          0.00495463  1.81025518  0.00000000   

	 - Coordinate -           - BOHR/RAD -       - ANG/DEG -
	 R(1,2)           =         1.810080           0.957853
	 R(1,3)           =         1.810254           0.957945
	 R(1,4)           =         1.810162           0.957896
	 B(2,1,3)         =         2.094451         120.003198
	 B(2,1,4)         =         2.094388         119.999593
	 B(3,1,4)         =         2.094346         119.997209
	 O(2,1,3,4)       =         0.000000           0.000000
	 O(3,1,2,4)       =         0.000000           0.000000
	 O(4,1,2,3)       =         0.000000           0.000000



	        --- Internal Coordinate Step in ANG or DEG, aJ/ANG or AJ/DEG ---
	-------------------------------------------------------------------------------
	           Coordinate      Previous         Force          Change          New 
	           ----------      --------        ------          ------        ------
	               R(1,2)       0.95899       -0.00714       -0.00114       0.95785
	               R(1,3)       0.95883       -0.00571       -0.00088       0.95795
	               R(1,4)       0.95892       -0.00648       -0.00102       0.95790
	             B(2,1,3)     120.02186       -0.00000       -0.01866     120.00320
	             B(2,1,4)     119.99802        0.00000        0.00157     119.99959
	             B(3,1,4)     119.98012        0.00000        0.01709     119.99721
	           O(2,1,3,4)       0.00000        0.00000        0.00000       0.00000
	           O(3,1,2,4)       0.00000        0.00000        0.00000       0.00000
	           O(4,1,2,3)       0.00000        0.00000        0.00000       0.00000
	-------------------------------------------------------------------------------

	                                 ==> Convergence Check <==                                  
    
	Measures of convergence in internal coordinates in au.
    
	Criteria marked as inactive (o), active & met (*), and active & unmet ( ).

	----------------------------------------------------------------------------------------------
	   Step    Total Energy     Delta E     Max Force     RMS Force      Max Disp      RMS Disp   
	----------------------------------------------------------------------------------------------
	  Convergence Criteria     1.00e-06 *    3.00e-04 *             o    1.20e-03 *             o
	----------------------------------------------------------------------------------------------
	     4     -76.30886390   -8.90e-06      8.67e-04      4.54e-04 o    2.15e-03      1.12e-03 o  ~
	----------------------------------------------------------------------------------------------

Next Geometry in Ang 
	Fragment 1 (Ang)

	    O   0.0000232475   0.0000528663   0.0000000000
	    H   0.8282493653  -0.4811163522   0.0000000000
	    H  -0.8309013180  -0.4766269748   0.0000000000
	    H   0.0026218758   0.9579457879   0.0000000000

2026-03-25:16:33:57,571 INFO     [psi4.optking.convcheck:76] Performing convergence check.
2026-03-25:16:33:57,571 INFO     [psi4.optking.convcheck:282] 
	                                 ==> Convergence Check <==                                  
    
	Measures of convergence in internal coordinates in au.
    
	Criteria marked as inactive (o), active & met (*), and active & unmet ( ).

	----------------------------------------------------------------------------------------------
	   Step    Total Energy     Delta E     Max Force     RMS Force      Max Disp      RMS Disp   
	----------------------------------------------------------------------------------------------
	  Convergence Criteria     1.00e-06 *    3.00e-04 *             o    1.20e-03 *             o
	----------------------------------------------------------------------------------------------
	     4     -76.30886390   -8.90e-06      8.67e-04      4.54e-04 o    2.15e-03      1.12e-03 o  ~
	----------------------------------------------------------------------------------------------


2026-03-25:16:33:57,571 INFO     [psi4.optking.stepAlgorithms:296] 	Convergence check returned False

    Structure for next step:
    Molecular point group: cs
    Full point group: Cs

    Geometry (in Angstrom), charge = 1, multiplicity = 1:

    O            0.000005289646    -0.000002324332     0.000000000000
    H            0.828231407469    -0.481171542931     0.000000000000
    H           -0.830919275903    -0.476682165461     0.000000000000
    H            0.002603917908     0.957890597224     0.000000000000


Scratch directory: /tmp/
2026-03-25:16:33:57,585 INFO     [psi4.driver.task_planner:259] PLANNING Atomic:  keywords={'SCF__GUESS': 'READ', 'SCF__INTS_TOLERANCE': 1e-12, 'REFERENCE': 'RHF', 'function_kwargs': {}}
gradient() will perform analytic gradient computation.
2026-03-25:16:33:57,586 INFO     [psi4.driver.driver:638] Compute gradient(): method=hf, basis=6-31g(d,p), molecule=default, nre=14.215303941756439
   => Libint2 <=

    Primary   basis highest AM E, G, H:  7, 6, 3
    Auxiliary basis highest AM E, G, H:  7, 7, 4
    Onebody   basis highest AM E, G, H:  -, -, -
    Solid Harmonics ordering:            Gaussian

*** tstart() called on Bistromath.dhcp.hunter.cuny.edu
*** at Wed Mar 25 16:33:57 2026

   => Loading Basis Set <=

    Name: 6-31G(D,P)
    Role: ORBITAL
    Keyword: BASIS
    atoms 1   entry O          line   149 file /Users/mskblackbelt/Developer/ir_visuals_widget/.pixi/envs/default/share/psi4/basis/6-31g_d_p_.gbs 
    atoms 2-4 entry H          line    44 file /Users/mskblackbelt/Developer/ir_visuals_widget/.pixi/envs/default/share/psi4/basis/6-31g_d_p_.gbs 


         ---------------------------------------------------------
                                   SCF
               by Justin Turney, Rob Parrish, Andy Simmonett
                          and Daniel G. A. Smith
                              RHF Reference
                        1 Threads,    500 MiB Core
         ---------------------------------------------------------

  ==> Geometry <==

    Molecular point group: cs
    Full point group: Cs

    Geometry (in Angstrom), charge = 1, multiplicity = 1:

       Center              X                  Y                   Z               Mass       
    ------------   -----------------  -----------------  -----------------  -----------------
         O            0.000005289646    -0.000002324332     0.000000000000    15.994914619570
         H            0.828231407469    -0.481171542931     0.000000000000     1.007825032230
         H           -0.830919275903    -0.476682165461     0.000000000000     1.007825032230
         H            0.002603917908     0.957890597224     0.000000000000     1.007825032230

  Running in cs symmetry.

  Rotational constants: A =     12.15360  B =     12.15228  C =      6.07647 [cm^-1]
  Rotational constants: A = 364355.61584  B = 364316.29428  C = 182167.97700 [MHz]
  Nuclear repulsion =   14.215303941756439

  Charge       = 1
  Multiplicity = 1
  Electrons    = 10
  Nalpha       = 5
  Nbeta        = 5

  ==> Algorithm <==

  SCF Algorithm Type is DF.
  DIIS enabled.
  MOM disabled.
  Fractional occupation disabled.
  Guess Type is READ.
  Energy threshold   = 1.00e-08
  Density threshold  = 1.00e-08
  Integral threshold = 1.00e-12

  ==> Primary Basis <==

  Basis Set: 6-31G(D,P)
    Blend: 6-31G(D,P)
    Number of shells: 15
    Number of basis functions: 30
    Number of Cartesian functions: 30
    Spherical Harmonics?: false
    Max angular momentum: 2

   => Loading Basis Set <=

    Name: (6-31G(D,P) AUX)
    Role: JKFIT
    Keyword: DF_BASIS_SCF
    atoms 1   entry O          line   221 file /Users/mskblackbelt/Developer/ir_visuals_widget/.pixi/envs/default/share/psi4/basis/cc-pvdz-jkfit.gbs 
    atoms 2-4 entry H          line    51 file /Users/mskblackbelt/Developer/ir_visuals_widget/.pixi/envs/default/share/psi4/basis/cc-pvdz-jkfit.gbs 

   => Loading Basis Set <=

    Name: 6-31G(D,P)
    Role: ORBITAL
    Keyword: BASIS
    atoms 1   entry O          line   149 file /Users/mskblackbelt/Developer/ir_visuals_widget/.pixi/envs/default/share/psi4/basis/6-31g_d_p_.gbs 
    atoms 2-4 entry H          line    44 file /Users/mskblackbelt/Developer/ir_visuals_widget/.pixi/envs/default/share/psi4/basis/6-31g_d_p_.gbs 

  Reading orbitals from file /tmp/planar_h3o.default.6086.180.npy, no projection.

  ==> Integral Setup <==

  DFHelper Memory: AOs need 0.001 GiB; user supplied 0.366 GiB. 
  SCF_SUBTYPE=INCORE selected. In-core MEM_DF algorithm will be used.
  Using in-core AOs.

  ==> MemDFJK: Density-Fitted J/K Matrices <==

    J tasked:                   Yes
    K tasked:                   Yes
    wK tasked:                   No
    OpenMP threads:               1
    Memory [MiB]:               375
    Algorithm:                 Core
    Schwarz Cutoff:           1E-12
    Mask sparsity (%):       0.0000
    Fitting Condition:        1E-10

   => Auxiliary Basis Set <=

  Basis Set: (6-31G(D,P) AUX)
    Blend: CC-PVDZ-JKFIT
    Number of shells: 51
    Number of basis functions: 156
    Number of Cartesian functions: 156
    Spherical Harmonics?: false
    Max angular momentum: 3

  Minimum eigenvalue in the overlap matrix is 1.8323239100E-02.
  Reciprocal condition number of the overlap matrix is 3.4084761303E-03.
    Using symmetric orthogonalization.

  ==> Pre-Iterations <==

  SCF Guess: Orbitals guess was supplied from a previous computation.

   -------------------------------------------------------
    Irrep   Nso     Nmo     Nalpha   Nbeta   Ndocc  Nsocc
   -------------------------------------------------------
     A'        23      23       4       4       4       0
     A"         7       7       1       1       1       0
   -------------------------------------------------------
    Total      30      30       5       5       5       0
   -------------------------------------------------------

  ==> Iterations <==

                           Total Energy        Delta E     RMS |[F,P]|

   @DF-RHF iter   0:   -76.31193022215311   -7.63119e+01   1.05767e-04 
   @DF-RHF iter   1:   -76.30886493222927    3.06529e-03   3.82280e-05 DIIS
   @DF-RHF iter   2:   -76.30886519530524   -2.63076e-07   2.17267e-05 DIIS
   @DF-RHF iter   3:   -76.30886527890402   -8.35988e-08   1.30379e-06 DIIS
   @DF-RHF iter   4:   -76.30886527949653   -5.92507e-10   1.44541e-07 DIIS
   @DF-RHF iter   5:   -76.30886527950531   -8.78231e-12   2.25946e-08 DIIS
   @DF-RHF iter   6:   -76.30886527950550   -1.84741e-13   4.87655e-09 DIIS
  Energy and wave function converged.


  ==> Post-Iterations <==

    Orbital Energies [Eh]
    ---------------------

    Doubly Occupied:                                                      

       1Ap   -21.002906     2Ap    -1.800116     3Ap    -1.154886  
       4Ap    -1.154852     1App   -0.934441  

    Virtual:                                                              

       5Ap    -0.106675     6Ap     0.009462     7Ap     0.009485  
       8Ap     0.665449     9Ap     0.665491    10Ap     0.666898  
       2App    0.767741    11Ap     0.897599    12Ap     0.897606  
      13Ap     1.087618     3App    1.374344     4App    1.374357  
      14Ap     1.975518    15Ap     2.137218    16Ap     2.164931  
      17Ap     2.165010     5App    2.364516     6App    2.683647  
       7App    2.683751    18Ap     2.907521    19Ap     2.907572  
      20Ap     3.352008    21Ap     3.541689    22Ap     3.541722  
      23Ap     4.135113  

    Final Occupation by Irrep:
             Ap   App 
    DOCC [     4,    1 ]
    NA   [     4,    1 ]
    NB   [     4,    1 ]

  @DF-RHF Final Energy:   -76.30886527950550

   => Energetics <=

    Nuclear Repulsion Energy =             14.2153039417564386
    One-Electron Energy =                -128.9539373485626754
    Two-Electron Energy =                  38.4297681273007328
    Total Energy =                        -76.3088652795054969

Computation Completed


Properties will be evaluated at   0.000000,   0.000000,   0.000000 [a0]

Properties computed using the SCF density matrix


 Multipole Moments:

 ------------------------------------------------------------------------------------
     Multipole            Electronic (a.u.)      Nuclear  (a.u.)        Total (a.u.)
 ------------------------------------------------------------------------------------

 L = 1.  Multiply by 2.5417464519 to convert [e a0] to [Debye]
 Dipole X            :         -0.0000314           -0.0000787           -0.0001101
 Dipole Y            :         -0.0000084            0.0000346            0.0000262
 Dipole Z            :          0.0000000            0.0000000            0.0000000
 Magnitude           :                                                    0.0001132

 ------------------------------------------------------------------------------------

*** tstop() called on Bistromath.dhcp.hunter.cuny.edu at Wed Mar 25 16:33:57 2026
Module time:
	user time   =       0.07 seconds =       0.00 minutes
	system time =       0.01 seconds =       0.00 minutes
	total time  =          0 seconds =       0.00 minutes
Total time:
	user time   =       1.54 seconds =       0.03 minutes
	system time =       0.31 seconds =       0.01 minutes
	total time  =         11 seconds =       0.18 minutes

*** tstart() called on Bistromath.dhcp.hunter.cuny.edu
*** at Wed Mar 25 16:33:57 2026


         ------------------------------------------------------------
                                   SCF GRAD                          
                          Rob Parrish, Justin Turney,                
                       Andy Simmonett, and Alex Sokolov              
         ------------------------------------------------------------

  ==> Geometry <==

    Molecular point group: cs
    Full point group: Cs

    Geometry (in Angstrom), charge = 1, multiplicity = 1:

       Center              X                  Y                   Z               Mass       
    ------------   -----------------  -----------------  -----------------  -----------------
         O            0.000005289646    -0.000002324332     0.000000000000    15.994914619570
         H            0.828231407469    -0.481171542931     0.000000000000     1.007825032230
         H           -0.830919275903    -0.476682165461     0.000000000000     1.007825032230
         H            0.002603917908     0.957890597224     0.000000000000     1.007825032230

  Nuclear repulsion =   14.215303941756439

  ==> Basis Set <==

  Basis Set: 6-31G(D,P)
    Blend: 6-31G(D,P)
    Number of shells: 15
    Number of basis functions: 30
    Number of Cartesian functions: 30
    Spherical Harmonics?: false
    Max angular momentum: 2

  ==> DFJKGrad: Density-Fitted SCF Gradients <==

    Gradient:                    1
    J tasked:                  Yes
    K tasked:                  Yes
    wK tasked:                  No
    OpenMP threads:              1
    Integrals threads:           1
    Memory [MiB]:              375
    Schwarz Cutoff:          1E-12
    Fitting Condition:       1E-10

   => Auxiliary Basis Set <=

  Basis Set: (6-31G(D,P) AUX)
    Blend: CC-PVDZ-JKFIT
    Number of shells: 51
    Number of basis functions: 156
    Number of Cartesian functions: 156
    Spherical Harmonics?: false
    Max angular momentum: 3


  -Total Gradient:
     Atom            X                  Y                   Z
    ------   -----------------  -----------------  -----------------
       1        0.000089958372    -0.000006535642     0.000000000000
       2       -0.000311032408     0.000185528612     0.000000000000
       3        0.000224429107     0.000136444813     0.000000000000
       4       -0.000003355071    -0.000315437783     0.000000000000


*** tstop() called on Bistromath.dhcp.hunter.cuny.edu at Wed Mar 25 16:33:57 2026
Module time:
	user time   =       0.02 seconds =       0.00 minutes
	system time =       0.00 seconds =       0.00 minutes
	total time  =          0 seconds =       0.00 minutes
Total time:
	user time   =       1.56 seconds =       0.03 minutes
	system time =       0.31 seconds =       0.01 minutes
	total time  =         11 seconds =       0.18 minutes
2026-03-25:16:33:57,679 INFO     [psi4.driver.driver:641] Return gradient(): -76.3088652795055
2026-03-25:16:33:57,679 INFO     [psi4.driver.driver:642] [[ 0.00008996 -0.00000654  0.00000000]
 [-0.00031103  0.00018553  0.00000000]
 [ 0.00022443  0.00013644  0.00000000]
 [-0.00000336 -0.00031544  0.00000000]]

    			-----------------------------------------

    			 OPTKING 3.0: for geometry optimizations 

    			     By R.A. King, Bethel University     

    			        with contributions from          

    			    A.V. Copan, J. Cayton, A. Heide      

    			-----------------------------------------

    
	                            ===> Fragment 1 <== 

	 Z (Atomic Numbers)          Masses                          Geom                  
	       8.000000            15.994915          0.00001000 -0.00000439  0.00000000   
	       1.000000             1.007825          1.56513053 -0.90928244  0.00000000   
	       1.000000             1.007825         -1.57020986 -0.90079874  0.00000000   
	       1.000000             1.007825          0.00492069  1.81015089  0.00000000   

	 - Coordinate -           - BOHR/RAD -       - ANG/DEG -
	 R(1,2)           =         1.810080           0.957853
	 R(1,3)           =         1.810254           0.957945
	 R(1,4)           =         1.810162           0.957896
	 B(2,1,3)         =         2.094451         120.003198
	 B(2,1,4)         =         2.094388         119.999593
	 B(3,1,4)         =         2.094346         119.997209
	 O(2,1,3,4)       =         0.000000           0.000000
	 O(3,1,2,4)       =         0.000000           0.000000
	 O(4,1,2,3)       =         0.000000           0.000000
2026-03-25:16:33:57,681 INFO     [psi4.optking.history:269] 	Performing BFGS update.
2026-03-25:16:33:57,682 INFO     [psi4.optking.history:280] 	Using 4 previous steps for update.
2026-03-25:16:33:57,683 INFO     [psi4.optking.history:317] 	Steps to be used in Hessian update:  4 3 2 1

2026-03-25:16:33:57,684 INFO     [psi4.optking.history:418] 	Updated Hessian (in au) 
 	   0.392136   0.007135   0.008310  -0.000783   0.000072   0.000710   0.000000
	   0.000000   0.000000
	   0.007135   0.398062   0.007891  -0.000509   0.000037   0.000471   0.000000
	   0.000000   0.000000
	   0.008310   0.007891   0.393434  -0.000779   0.000067   0.000712   0.000000
	   0.000000   0.000000
	  -0.000783  -0.000509  -0.000779   0.098469  -0.052560  -0.045908   0.000000
	   0.000000   0.000000
	   0.000072   0.000037   0.000067  -0.052560   0.106594  -0.054034   0.000000
	   0.000000   0.000000
	   0.000710   0.000471   0.000712  -0.045908  -0.054034   0.099942   0.000000
	   0.000000   0.000000
	   0.000000   0.000000   0.000000   0.000000   0.000000   0.000000   0.000333
	  -0.000333   0.000333
	   0.000000   0.000000   0.000000   0.000000   0.000000   0.000000  -0.000333
	   0.000333  -0.000333
	   0.000000   0.000000   0.000000   0.000000   0.000000   0.000000   0.000333
	  -0.000333   0.000333

2026-03-25:16:33:57,685 INFO     [psi4.optking.molsys:944] Projected (PHP) Hessian matrix
	   0.392136   0.007135   0.008310  -0.000783   0.000072   0.000710   0.000000
	   0.000000   0.000000
	   0.007135   0.398062   0.007891  -0.000509   0.000037   0.000471   0.000000
	   0.000000   0.000000
	   0.008310   0.007891   0.393434  -0.000779   0.000067   0.000712   0.000000
	   0.000000   0.000000
	  -0.000783  -0.000509  -0.000779   0.098469  -0.052560  -0.045908   0.000000
	   0.000000   0.000000
	   0.000072   0.000037   0.000067  -0.052560   0.106594  -0.054034   0.000000
	   0.000000   0.000000
	   0.000710   0.000471   0.000712  -0.045908  -0.054034   0.099942   0.000000
	   0.000000   0.000000
	   0.000000   0.000000   0.000000   0.000000   0.000000   0.000000   0.000333
	  -0.000333   0.000333
	   0.000000   0.000000   0.000000   0.000000   0.000000   0.000000  -0.000333
	   0.000333  -0.000333
	   0.000000   0.000000   0.000000   0.000000   0.000000   0.000000   0.000333
	  -0.000333   0.000333

2026-03-25:16:33:57,685 INFO     [psi4.optking.opt_helper:182] 
	         Geometry (au)                                       Gradient (au)
   0.0000099960  -0.0000043924   0.0000000000		   0.0000899584  -0.0000065356   0.0000000000
   1.5651305286  -0.9092824355   0.0000000000		  -0.0003110324   0.0001855286   0.0000000000
  -1.5702098638  -0.9007987416   0.0000000000		   0.0002244291   0.0001364448   0.0000000000
   0.0049206917   1.8101508869   0.0000000000		  -0.0000033551  -0.0003154378   0.0000000000

2026-03-25:16:33:57,686 INFO     [psi4.optking.stepAlgorithms:368] 	Current Step Report 
 
	Current energy:       -76.3088652795
	Energy change for the previous step:
		Actual       :        -0.0000013763
		Projected    :        -0.0000022839

2026-03-25:16:33:57,686 INFO     [psi4.optking.stepAlgorithms:371] 	Energy ratio =    0.60261
2026-03-25:16:33:57,686 INFO     [psi4.optking.stepAlgorithms:929] 	Using RFO solution 1.
2026-03-25:16:33:57,686 INFO     [psi4.optking.displace:100] 	Determining Cartesian step for fragment 1.
2026-03-25:16:33:57,688 INFO     [psi4.optking.displace:415] 	Successfully converged to displaced geometry.
2026-03-25:16:33:57,688 INFO     [psi4.optking.displace:416] 	RMS(dx):  4.192e-09 	Max(dx):  7.075e-09 	RMS(dq):  9.252e-13
2026-03-25:16:33:57,689 INFO     [psi4.optking.displace:172] 

	        --- Internal Coordinate Step in ANG or DEG, aJ/ANG or AJ/DEG ---
	-------------------------------------------------------------------------------
	           Coordinate      Previous         Force          Change          New 
	           ----------      --------        ------          ------        ------
	               R(1,2)       0.95785        0.00298        0.00047       0.95833
	               R(1,3)       0.95795        0.00216        0.00033       0.95828
	               R(1,4)       0.95790        0.00260        0.00041       0.95830
	             B(2,1,3)     120.00320       -0.00000       -0.00194     120.00126
	             B(2,1,4)     119.99959        0.00000        0.00033     119.99992
	             B(3,1,4)     119.99721        0.00000        0.00161     119.99882
	           O(2,1,3,4)       0.00000        0.00000        0.00000       0.00000
	           O(3,1,2,4)       0.00000        0.00000        0.00000       0.00000
	           O(4,1,2,3)       0.00000        0.00000        0.00000       0.00000
	-------------------------------------------------------------------------------

2026-03-25:16:33:57,689 INFO     [psi4.optking.stepAlgorithms:113] 	|target step| :    0.0013386151
2026-03-25:16:33:57,690 INFO     [psi4.optking.stepAlgorithms:114] 	gradient     :   -0.0005472899
2026-03-25:16:33:57,690 INFO     [psi4.optking.stepAlgorithms:115] 	hessian      :    0.4088470800
2026-03-25:16:33:57,690 INFO     [psi4.optking.stepAlgorithms:113] 	|target step| :    0.0013386151
2026-03-25:16:33:57,690 INFO     [psi4.optking.stepAlgorithms:114] 	gradient     :   -0.0005472899
2026-03-25:16:33:57,690 INFO     [psi4.optking.stepAlgorithms:115] 	hessian      :    0.4088470800
2026-03-25:16:33:57,690 INFO     [psi4.optking.stepAlgorithms:206] 	Norm of achieved step-size    0.0013386151
2026-03-25:16:33:57,690 INFO     [psi4.optking.stepAlgorithms:208] 	Norm of achieved step-size (cart):    0.0013325589
2026-03-25:16:33:57,690 INFO     [psi4.optking.opt_helper:164] Molsys:

	                            ===> Fragment 1 <== 

	 Z (Atomic Numbers)          Masses                          Geom                  
	       8.000000            15.994915         -0.00005294  0.00000699  0.00000000   
	       1.000000             1.007825          1.56583001 -0.90974163  0.00000000   
	       1.000000             1.007825         -1.57079909 -0.90113241  0.00000000   
	       1.000000             1.007825          0.00487336  1.81093237  0.00000000   

	 - Coordinate -           - BOHR/RAD -       - ANG/DEG -
	 R(1,2)           =         1.810975           0.958327
	 R(1,3)           =         1.810883           0.958278
	 R(1,4)           =         1.810932           0.958304
	 B(2,1,3)         =         2.094417         120.001258
	 B(2,1,4)         =         2.094394         119.999922
	 B(3,1,4)         =         2.094375         119.998820
	 O(2,1,3,4)       =         0.000000           0.000000
	 O(3,1,2,4)       =         0.000000           0.000000
	 O(4,1,2,3)       =         0.000000           0.000000



	        --- Internal Coordinate Step in ANG or DEG, aJ/ANG or AJ/DEG ---
	-------------------------------------------------------------------------------
	           Coordinate      Previous         Force          Change          New 
	           ----------      --------        ------          ------        ------
	               R(1,2)       0.95785        0.00298        0.00047       0.95833
	               R(1,3)       0.95795        0.00216        0.00033       0.95828
	               R(1,4)       0.95790        0.00260        0.00041       0.95830
	             B(2,1,3)     120.00320       -0.00000       -0.00194     120.00126
	             B(2,1,4)     119.99959        0.00000        0.00033     119.99992
	             B(3,1,4)     119.99721        0.00000        0.00161     119.99882
	           O(2,1,3,4)       0.00000        0.00000        0.00000       0.00000
	           O(3,1,2,4)       0.00000        0.00000        0.00000       0.00000
	           O(4,1,2,3)       0.00000        0.00000        0.00000       0.00000
	-------------------------------------------------------------------------------

	                                 ==> Convergence Check <==                                  
    
	Measures of convergence in internal coordinates in au.
    
	Criteria marked as inactive (o), active & met (*), and active & unmet ( ).

	----------------------------------------------------------------------------------------------
	   Step    Total Energy     Delta E     Max Force     RMS Force      Max Disp      RMS Disp   
	----------------------------------------------------------------------------------------------
	  Convergence Criteria     1.00e-06 *    3.00e-04 *             o    1.20e-03 *             o
	----------------------------------------------------------------------------------------------
	     5     -76.30886528   -1.38e-06      3.62e-04      1.82e-04 o    8.96e-04 *    4.46e-04 o  ~
	----------------------------------------------------------------------------------------------

Next Geometry in Ang 
	Fragment 1 (Ang)

	    O  -0.0000280122   0.0000037010   0.0000000000
	    H   0.8286015587  -0.4814145404   0.0000000000
	    H  -0.8312310806  -0.4768587370   0.0000000000
	    H   0.0025788732   0.9583041409   0.0000000000

2026-03-25:16:33:57,690 INFO     [psi4.optking.convcheck:76] Performing convergence check.
2026-03-25:16:33:57,690 INFO     [psi4.optking.convcheck:282] 
	                                 ==> Convergence Check <==                                  
    
	Measures of convergence in internal coordinates in au.
    
	Criteria marked as inactive (o), active & met (*), and active & unmet ( ).

	----------------------------------------------------------------------------------------------
	   Step    Total Energy     Delta E     Max Force     RMS Force      Max Disp      RMS Disp   
	----------------------------------------------------------------------------------------------
	  Convergence Criteria     1.00e-06 *    3.00e-04 *             o    1.20e-03 *             o
	----------------------------------------------------------------------------------------------
	     5     -76.30886528   -1.38e-06      3.62e-04      1.82e-04 o    8.96e-04 *    4.46e-04 o  ~
	----------------------------------------------------------------------------------------------


2026-03-25:16:33:57,690 INFO     [psi4.optking.stepAlgorithms:296] 	Convergence check returned False

    Structure for next step:
    Molecular point group: cs
    Full point group: Cs

    Geometry (in Angstrom), charge = 1, multiplicity = 1:

    O           -0.000001769299    -0.000001047145     0.000000000000
    H            0.828627801624    -0.481419288587     0.000000000000
    H           -0.831204837651    -0.476863485208     0.000000000000
    H            0.002605116090     0.958299392747     0.000000000000


Scratch directory: /tmp/
2026-03-25:16:33:57,705 INFO     [psi4.driver.task_planner:259] PLANNING Atomic:  keywords={'SCF__GUESS': 'READ', 'SCF__INTS_TOLERANCE': 1e-12, 'REFERENCE': 'RHF', 'function_kwargs': {}}
gradient() will perform analytic gradient computation.
2026-03-25:16:33:57,706 INFO     [psi4.driver.driver:638] Compute gradient(): method=hf, basis=6-31g(d,p), molecule=default, nre=14.209301549526131
   => Libint2 <=

    Primary   basis highest AM E, G, H:  7, 6, 3
    Auxiliary basis highest AM E, G, H:  7, 7, 4
    Onebody   basis highest AM E, G, H:  -, -, -
    Solid Harmonics ordering:            Gaussian

*** tstart() called on Bistromath.dhcp.hunter.cuny.edu
*** at Wed Mar 25 16:33:57 2026

   => Loading Basis Set <=

    Name: 6-31G(D,P)
    Role: ORBITAL
    Keyword: BASIS
    atoms 1   entry O          line   149 file /Users/mskblackbelt/Developer/ir_visuals_widget/.pixi/envs/default/share/psi4/basis/6-31g_d_p_.gbs 
    atoms 2-4 entry H          line    44 file /Users/mskblackbelt/Developer/ir_visuals_widget/.pixi/envs/default/share/psi4/basis/6-31g_d_p_.gbs 


         ---------------------------------------------------------
                                   SCF
               by Justin Turney, Rob Parrish, Andy Simmonett
                          and Daniel G. A. Smith
                              RHF Reference
                        1 Threads,    500 MiB Core
         ---------------------------------------------------------

  ==> Geometry <==

    Molecular point group: cs
    Full point group: Cs

    Geometry (in Angstrom), charge = 1, multiplicity = 1:

       Center              X                  Y                   Z               Mass       
    ------------   -----------------  -----------------  -----------------  -----------------
         O           -0.000001769299    -0.000001047145     0.000000000000    15.994914619570
         H            0.828627801624    -0.481419288587     0.000000000000     1.007825032230
         H           -0.831204837651    -0.476863485208     0.000000000000     1.007825032230
         H            0.002605116090     0.958299392747     0.000000000000     1.007825032230

  Running in cs symmetry.

  Rotational constants: A =     12.14314  B =     12.14222  C =      6.07134 [cm^-1]
  Rotational constants: A = 364042.10547  B = 364014.57431  C = 182014.16968 [MHz]
  Nuclear repulsion =   14.209301549526131

  Charge       = 1
  Multiplicity = 1
  Electrons    = 10
  Nalpha       = 5
  Nbeta        = 5

  ==> Algorithm <==

  SCF Algorithm Type is DF.
  DIIS enabled.
  MOM disabled.
  Fractional occupation disabled.
  Guess Type is READ.
  Energy threshold   = 1.00e-08
  Density threshold  = 1.00e-08
  Integral threshold = 1.00e-12

  ==> Primary Basis <==

  Basis Set: 6-31G(D,P)
    Blend: 6-31G(D,P)
    Number of shells: 15
    Number of basis functions: 30
    Number of Cartesian functions: 30
    Spherical Harmonics?: false
    Max angular momentum: 2

   => Loading Basis Set <=

    Name: (6-31G(D,P) AUX)
    Role: JKFIT
    Keyword: DF_BASIS_SCF
    atoms 1   entry O          line   221 file /Users/mskblackbelt/Developer/ir_visuals_widget/.pixi/envs/default/share/psi4/basis/cc-pvdz-jkfit.gbs 
    atoms 2-4 entry H          line    51 file /Users/mskblackbelt/Developer/ir_visuals_widget/.pixi/envs/default/share/psi4/basis/cc-pvdz-jkfit.gbs 

   => Loading Basis Set <=

    Name: 6-31G(D,P)
    Role: ORBITAL
    Keyword: BASIS
    atoms 1   entry O          line   149 file /Users/mskblackbelt/Developer/ir_visuals_widget/.pixi/envs/default/share/psi4/basis/6-31g_d_p_.gbs 
    atoms 2-4 entry H          line    44 file /Users/mskblackbelt/Developer/ir_visuals_widget/.pixi/envs/default/share/psi4/basis/6-31g_d_p_.gbs 

  Reading orbitals from file /tmp/planar_h3o.default.6086.180.npy, no projection.

  ==> Integral Setup <==

  DFHelper Memory: AOs need 0.001 GiB; user supplied 0.366 GiB. 
  SCF_SUBTYPE=INCORE selected. In-core MEM_DF algorithm will be used.
  Using in-core AOs.

  ==> MemDFJK: Density-Fitted J/K Matrices <==

    J tasked:                   Yes
    K tasked:                   Yes
    wK tasked:                   No
    OpenMP threads:               1
    Memory [MiB]:               375
    Algorithm:                 Core
    Schwarz Cutoff:           1E-12
    Mask sparsity (%):       0.0000
    Fitting Condition:        1E-10

   => Auxiliary Basis Set <=

  Basis Set: (6-31G(D,P) AUX)
    Blend: CC-PVDZ-JKFIT
    Number of shells: 51
    Number of basis functions: 156
    Number of Cartesian functions: 156
    Spherical Harmonics?: false
    Max angular momentum: 3

  Minimum eigenvalue in the overlap matrix is 1.8336527293E-02.
  Reciprocal condition number of the overlap matrix is 3.4118453408E-03.
    Using symmetric orthogonalization.

  ==> Pre-Iterations <==

  SCF Guess: Orbitals guess was supplied from a previous computation.

   -------------------------------------------------------
    Irrep   Nso     Nmo     Nalpha   Nbeta   Ndocc  Nsocc
   -------------------------------------------------------
     A'        23      23       4       4       4       0
     A"         7       7       1       1       1       0
   -------------------------------------------------------
    Total      30      30       5       5       5       0
   -------------------------------------------------------

  ==> Iterations <==

                           Total Energy        Delta E     RMS |[F,P]|

   @DF-RHF iter   0:   -76.30764100842464   -7.63076e+01   4.26906e-05 
   @DF-RHF iter   1:   -76.30886544372792   -1.22444e-03   1.52940e-05 DIIS
   @DF-RHF iter   2:   -76.30886548583587   -4.21079e-08   8.68875e-06 DIIS
   @DF-RHF iter   3:   -76.30886549920925   -1.33734e-08   5.20234e-07 DIIS
   @DF-RHF iter   4:   -76.30886549930359   -9.43459e-11   5.80305e-08 DIIS
   @DF-RHF iter   5:   -76.30886549930487   -1.27898e-12   9.54081e-09 DIIS
  Energy and wave function converged.


  ==> Post-Iterations <==

    Orbital Energies [Eh]
    ---------------------

    Doubly Occupied:                                                      

       1Ap   -21.002860     2Ap    -1.799780     3Ap    -1.154531  
       4Ap    -1.154518     1App   -0.934292  

    Virtual:                                                              

       5Ap    -0.106796     6Ap     0.009374     7Ap     0.009386  
       8Ap     0.665398     9Ap     0.665410    10Ap     0.666629  
       2App    0.767838    11Ap     0.897606    12Ap     0.897609  
      13Ap     1.087536     3App    1.374389     4App    1.374398  
      14Ap     1.975278    15Ap     2.136798    16Ap     2.164407  
      17Ap     2.164459     5App    2.364152     6App    2.683217  
       7App    2.683255    18Ap     2.906535    19Ap     2.906570  
      20Ap     3.351128    21Ap     3.540930    22Ap     3.540951  
      23Ap     4.134244  

    Final Occupation by Irrep:
             Ap   App 
    DOCC [     4,    1 ]
    NA   [     4,    1 ]
    NB   [     4,    1 ]

  @DF-RHF Final Energy:   -76.30886549930487

   => Energetics <=

    Nuclear Repulsion Energy =             14.2093015495261312
    One-Electron Energy =                -128.9443720025157063
    Two-Electron Energy =                  38.4262049536846959
    Total Energy =                        -76.3088654993048863

Computation Completed


Properties will be evaluated at   0.000000,   0.000000,   0.000000 [a0]

Properties computed using the SCF density matrix


 Multipole Moments:

 ------------------------------------------------------------------------------------
     Multipole            Electronic (a.u.)      Nuclear  (a.u.)        Total (a.u.)
 ------------------------------------------------------------------------------------

 L = 1.  Multiply by 2.5417464519 to convert [e a0] to [Debye]
 Dipole X            :          0.0000198            0.0000263            0.0000461
 Dipole Y            :         -0.0000022            0.0000156            0.0000133
 Dipole Z            :          0.0000000            0.0000000            0.0000000
 Magnitude           :                                                    0.0000480

 ------------------------------------------------------------------------------------

*** tstop() called on Bistromath.dhcp.hunter.cuny.edu at Wed Mar 25 16:33:57 2026
Module time:
	user time   =       0.06 seconds =       0.00 minutes
	system time =       0.00 seconds =       0.00 minutes
	total time  =          0 seconds =       0.00 minutes
Total time:
	user time   =       1.65 seconds =       0.03 minutes
	system time =       0.31 seconds =       0.01 minutes
	total time  =         11 seconds =       0.18 minutes

*** tstart() called on Bistromath.dhcp.hunter.cuny.edu
*** at Wed Mar 25 16:33:57 2026


         ------------------------------------------------------------
                                   SCF GRAD                          
                          Rob Parrish, Justin Turney,                
                       Andy Simmonett, and Alex Sokolov              
         ------------------------------------------------------------

  ==> Geometry <==

    Molecular point group: cs
    Full point group: Cs

    Geometry (in Angstrom), charge = 1, multiplicity = 1:

       Center              X                  Y                   Z               Mass       
    ------------   -----------------  -----------------  -----------------  -----------------
         O           -0.000001769299    -0.000001047145     0.000000000000    15.994914619570
         H            0.828627801624    -0.481419288587     0.000000000000     1.007825032230
         H           -0.831204837651    -0.476863485208     0.000000000000     1.007825032230
         H            0.002605116090     0.958299392747     0.000000000000     1.007825032230

  Nuclear repulsion =   14.209301549526131

  ==> Basis Set <==

  Basis Set: 6-31G(D,P)
    Blend: 6-31G(D,P)
    Number of shells: 15
    Number of basis functions: 30
    Number of Cartesian functions: 30
    Spherical Harmonics?: false
    Max angular momentum: 2

  ==> DFJKGrad: Density-Fitted SCF Gradients <==

    Gradient:                    1
    J tasked:                  Yes
    K tasked:                  Yes
    wK tasked:                  No
    OpenMP threads:              1
    Integrals threads:           1
    Memory [MiB]:              375
    Schwarz Cutoff:          1E-12
    Fitting Condition:       1E-10

   => Auxiliary Basis Set <=

  Basis Set: (6-31G(D,P) AUX)
    Blend: CC-PVDZ-JKFIT
    Number of shells: 51
    Number of basis functions: 156
    Number of Cartesian functions: 156
    Spherical Harmonics?: false
    Max angular momentum: 3


  -Total Gradient:
     Atom            X                  Y                   Z
    ------   -----------------  -----------------  -----------------
       1       -0.000043788203    -0.000005255000     0.000000000000
       2        0.000130760418    -0.000074288462     0.000000000000
       3       -0.000085967359    -0.000046091385     0.000000000000
       4       -0.000001004856     0.000125634847     0.000000000000


*** tstop() called on Bistromath.dhcp.hunter.cuny.edu at Wed Mar 25 16:33:57 2026
Module time:
	user time   =       0.01 seconds =       0.00 minutes
	system time =       0.01 seconds =       0.00 minutes
	total time  =          0 seconds =       0.00 minutes
Total time:
	user time   =       1.66 seconds =       0.03 minutes
	system time =       0.32 seconds =       0.01 minutes
	total time  =         11 seconds =       0.18 minutes
2026-03-25:16:33:57,797 INFO     [psi4.driver.driver:641] Return gradient(): -76.30886549930487
2026-03-25:16:33:57,797 INFO     [psi4.driver.driver:642] [[-0.00004379 -0.00000525  0.00000000]
 [ 0.00013076 -0.00007429  0.00000000]
 [-0.00008597 -0.00004609  0.00000000]
 [-0.00000100  0.00012563  0.00000000]]

    			-----------------------------------------

    			 OPTKING 3.0: for geometry optimizations 

    			     By R.A. King, Bethel University     

    			        with contributions from          

    			    A.V. Copan, J. Cayton, A. Heide      

    			-----------------------------------------

    
	                            ===> Fragment 1 <== 

	 Z (Atomic Numbers)          Masses                          Geom                  
	       8.000000            15.994915         -0.00000334 -0.00000198  0.00000000   
	       1.000000             1.007825          1.56587961 -0.90975061  0.00000000   
	       1.000000             1.007825         -1.57074950 -0.90114139  0.00000000   
	       1.000000             1.007825          0.00492296  1.81092340  0.00000000   

	 - Coordinate -           - BOHR/RAD -       - ANG/DEG -
	 R(1,2)           =         1.810975           0.958327
	 R(1,3)           =         1.810883           0.958278
	 R(1,4)           =         1.810932           0.958304
	 B(2,1,3)         =         2.094417         120.001258
	 B(2,1,4)         =         2.094394         119.999922
	 B(3,1,4)         =         2.094375         119.998820
	 O(2,1,3,4)       =         0.000000           0.000000
	 O(3,1,2,4)       =         0.000000           0.000000
	 O(4,1,2,3)       =         0.000000           0.000000
2026-03-25:16:33:57,799 INFO     [psi4.optking.history:269] 	Performing BFGS update.
2026-03-25:16:33:57,799 INFO     [psi4.optking.history:280] 	Using 4 previous steps for update.
2026-03-25:16:33:57,800 INFO     [psi4.optking.history:317] 	Steps to be used in Hessian update:  5 4 3 2

2026-03-25:16:33:57,802 INFO     [psi4.optking.history:418] 	Updated Hessian (in au) 
 	   0.451718   0.058699   0.063896  -0.005017   0.000514   0.004503   0.000000
	   0.000000   0.000000
	   0.058699   0.445355   0.057234  -0.003445   0.000344   0.003101   0.000000
	   0.000000   0.000000
	   0.063896   0.057234   0.445865  -0.004477   0.000452   0.004025   0.000000
	   0.000000   0.000000
	  -0.005017  -0.003445  -0.004477   0.095234  -0.052253  -0.042980   0.000000
	   0.000000   0.000000
	   0.000514   0.000344   0.000452  -0.052253   0.106565  -0.054312   0.000000
	   0.000000   0.000000
	   0.004503   0.003101   0.004025  -0.042980  -0.054312   0.097292   0.000000
	   0.000000   0.000000
	   0.000000   0.000000   0.000000   0.000000   0.000000   0.000000   0.000333
	  -0.000333   0.000333
	   0.000000   0.000000   0.000000   0.000000   0.000000   0.000000  -0.000333
	   0.000333  -0.000333
	   0.000000   0.000000   0.000000   0.000000   0.000000   0.000000   0.000333
	  -0.000333   0.000333

2026-03-25:16:33:57,803 INFO     [psi4.optking.molsys:944] Projected (PHP) Hessian matrix
	   0.451718   0.058699   0.063896  -0.005017   0.000514   0.004503   0.000000
	   0.000000   0.000000
	   0.058699   0.445355   0.057234  -0.003445   0.000344   0.003101   0.000000
	   0.000000   0.000000
	   0.063896   0.057234   0.445865  -0.004477   0.000452   0.004025   0.000000
	   0.000000   0.000000
	  -0.005017  -0.003445  -0.004477   0.095234  -0.052253  -0.042980   0.000000
	   0.000000   0.000000
	   0.000514   0.000344   0.000452  -0.052253   0.106565  -0.054312   0.000000
	   0.000000   0.000000
	   0.004503   0.003101   0.004025  -0.042980  -0.054312   0.097292   0.000000
	   0.000000   0.000000
	   0.000000   0.000000   0.000000   0.000000   0.000000   0.000000   0.000333
	  -0.000333   0.000333
	   0.000000   0.000000   0.000000   0.000000   0.000000   0.000000  -0.000333
	   0.000333  -0.000333
	   0.000000   0.000000   0.000000   0.000000   0.000000   0.000000   0.000333
	  -0.000333   0.000333

2026-03-25:16:33:57,803 INFO     [psi4.optking.opt_helper:182] 
	         Geometry (au)                                       Gradient (au)
  -0.0000033435  -0.0000019788   0.0000000000		  -0.0000437882  -0.0000052550   0.0000000000
   1.5658796050  -0.9097506069   0.0000000000		   0.0001307604  -0.0000742885   0.0000000000
  -1.5707494973  -0.9011413863   0.0000000000		  -0.0000859674  -0.0000460914   0.0000000000
   0.0049229559   1.8109233985   0.0000000000		  -0.0000010049   0.0001256348   0.0000000000

2026-03-25:16:33:57,803 INFO     [psi4.optking.stepAlgorithms:368] 	Current Step Report 
 
	Current energy:       -76.3088654993
	Energy change for the previous step:
		Actual       :        -0.0000002198
		Projected    :        -0.0000003663

2026-03-25:16:33:57,803 INFO     [psi4.optking.stepAlgorithms:371] 	Energy ratio =    0.60004
2026-03-25:16:33:57,803 INFO     [psi4.optking.stepAlgorithms:929] 	Using RFO solution 1.
2026-03-25:16:33:57,804 INFO     [psi4.optking.displace:100] 	Determining Cartesian step for fragment 1.
2026-03-25:16:33:57,806 INFO     [psi4.optking.displace:415] 	Successfully converged to displaced geometry.
2026-03-25:16:33:57,806 INFO     [psi4.optking.displace:416] 	RMS(dx):  1.356e-09 	Max(dx):  2.666e-09 	RMS(dq):  4.188e-11
2026-03-25:16:33:57,807 INFO     [psi4.optking.displace:172] 

	        --- Internal Coordinate Step in ANG or DEG, aJ/ANG or AJ/DEG ---
	-------------------------------------------------------------------------------
	           Coordinate      Previous         Force          Change          New 
	           ----------      --------        ------          ------        ------
	               R(1,2)       0.95833       -0.00124       -0.00015       0.95818
	               R(1,3)       0.95828       -0.00080       -0.00008       0.95820
	               R(1,4)       0.95830       -0.00104       -0.00012       0.95819
	             B(2,1,3)     120.00126       -0.00000       -0.00227     119.99899
	             B(2,1,4)     119.99992        0.00000        0.00016     120.00008
	             B(3,1,4)     119.99882        0.00000        0.00211     120.00093
	           O(2,1,3,4)       0.00000        0.00000        0.00000       0.00000
	           O(3,1,2,4)       0.00000        0.00000        0.00000       0.00000
	           O(4,1,2,3)       0.00000        0.00000        0.00000       0.00000
	-------------------------------------------------------------------------------

2026-03-25:16:33:57,807 INFO     [psi4.optking.stepAlgorithms:113] 	|target step| :    0.0003945788
2026-03-25:16:33:57,807 INFO     [psi4.optking.stepAlgorithms:114] 	gradient     :   -0.0002168540
2026-03-25:16:33:57,807 INFO     [psi4.optking.stepAlgorithms:115] 	hessian      :    0.5495834800
2026-03-25:16:33:57,807 INFO     [psi4.optking.stepAlgorithms:113] 	|target step| :    0.0003945788
2026-03-25:16:33:57,807 INFO     [psi4.optking.stepAlgorithms:114] 	gradient     :   -0.0002168540
2026-03-25:16:33:57,807 INFO     [psi4.optking.stepAlgorithms:115] 	hessian      :    0.5495834800
2026-03-25:16:33:57,807 INFO     [psi4.optking.stepAlgorithms:206] 	Norm of achieved step-size    0.0003945788
2026-03-25:16:33:57,807 INFO     [psi4.optking.stepAlgorithms:208] 	Norm of achieved step-size (cart):    0.0003914619
2026-03-25:16:33:57,808 INFO     [psi4.optking.opt_helper:164] Molsys:

	                            ===> Fragment 1 <== 

	 Z (Atomic Numbers)          Masses                          Geom                  
	       8.000000            15.994915          0.00001681  0.00001460  0.00000000   
	       1.000000             1.007825          1.56564280 -0.90961436  0.00000000   
	       1.000000             1.007825         -1.57057300 -0.90108841  0.00000000   
	       1.000000             1.007825          0.00496311  1.81071760  0.00000000   

	 - Coordinate -           - BOHR/RAD -       - ANG/DEG -
	 R(1,2)           =         1.810693           0.958178
	 R(1,3)           =         1.810729           0.958196
	 R(1,4)           =         1.810710           0.958186
	 B(2,1,3)         =         2.094377         119.998985
	 B(2,1,4)         =         2.094397         120.000080
	 B(3,1,4)         =         2.094411         120.000935
	 O(2,1,3,4)       =         0.000000           0.000000
	 O(3,1,2,4)       =         0.000000           0.000000
	 O(4,1,2,3)       =         0.000000           0.000000



	        --- Internal Coordinate Step in ANG or DEG, aJ/ANG or AJ/DEG ---
	-------------------------------------------------------------------------------
	           Coordinate      Previous         Force          Change          New 
	           ----------      --------        ------          ------        ------
	               R(1,2)       0.95833       -0.00124       -0.00015       0.95818
	               R(1,3)       0.95828       -0.00080       -0.00008       0.95820
	               R(1,4)       0.95830       -0.00104       -0.00012       0.95819
	             B(2,1,3)     120.00126       -0.00000       -0.00227     119.99899
	             B(2,1,4)     119.99992        0.00000        0.00016     120.00008
	             B(3,1,4)     119.99882        0.00000        0.00211     120.00093
	           O(2,1,3,4)       0.00000        0.00000        0.00000       0.00000
	           O(3,1,2,4)       0.00000        0.00000        0.00000       0.00000
	           O(4,1,2,3)       0.00000        0.00000        0.00000       0.00000
	-------------------------------------------------------------------------------

	                                 ==> Convergence Check <==                                  
    
	Measures of convergence in internal coordinates in au.
    
	Criteria marked as inactive (o), active & met (*), and active & unmet ( ).

	----------------------------------------------------------------------------------------------
	   Step    Total Energy     Delta E     Max Force     RMS Force      Max Disp      RMS Disp   
	----------------------------------------------------------------------------------------------
	  Convergence Criteria     1.00e-06 *    3.00e-04 *             o    1.20e-03 *             o
	----------------------------------------------------------------------------------------------
	     6     -76.30886550   -2.20e-07 *    1.50e-04 *    7.30e-05 o    2.82e-04 *    1.32e-04 o  ~
	----------------------------------------------------------------------------------------------

Next Geometry in Ang 
	Fragment 1 (Ang)

	    O   0.0000088965   0.0000077237   0.0000000000
	    H   0.8285024888  -0.4813471914   0.0000000000
	    H  -0.8311114413  -0.4768354503   0.0000000000
	    H   0.0026263668   0.9581904899   0.0000000000

2026-03-25:16:33:57,808 INFO     [psi4.optking.convcheck:76] Performing convergence check.
2026-03-25:16:33:57,808 INFO     [psi4.optking.convcheck:282] 
	                                 ==> Convergence Check <==                                  
    
	Measures of convergence in internal coordinates in au.
    
	Criteria marked as inactive (o), active & met (*), and active & unmet ( ).

	----------------------------------------------------------------------------------------------
	   Step    Total Energy     Delta E     Max Force     RMS Force      Max Disp      RMS Disp   
	----------------------------------------------------------------------------------------------
	  Convergence Criteria     1.00e-06 *    3.00e-04 *             o    1.20e-03 *             o
	----------------------------------------------------------------------------------------------
	     6     -76.30886550   -2.20e-07 *    1.50e-04 *    7.30e-05 o    2.82e-04 *    1.32e-04 o  ~
	----------------------------------------------------------------------------------------------


2026-03-25:16:33:57,808 INFO     [psi4.optking.convcheck:206] 
	                      ===> Final Convergence Report <===                     

	----------------------------------------------------------------------------
	|   Required Criteria    |  One or More Criteria  |   Alternate Criteria   |
	----------------------------------------------------------------------------
	| [x]     max_force      | [x]       max_DE       |                        |
	|                        | [x]      max_disp      |                        |
	----------------------------------------------------------------------------


2026-03-25:16:33:57,808 INFO     [psi4.optking.stepAlgorithms:296] 	Convergence check returned True
2026-03-25:16:33:57,808 INFO     [psi4.optking.optimize:332] 	Converged in 6 steps!
2026-03-25:16:33:57,808 INFO     [psi4.optking.optimize:333] 	Final energy is    -76.3088654993049
2026-03-25:16:33:57,808 INFO     [psi4.optking.optimize:334] 	Final structure (Angstroms): 
	Fragment 1 (Ang)

	    O   0.0000088965   0.0000077237   0.0000000000
	    H   0.8285024888  -0.4813471914   0.0000000000
	    H  -0.8311114413  -0.4768354503   0.0000000000
	    H   0.0026263668   0.9581904899   0.0000000000



    Final optimized geometry and variables:
    Molecular point group: cs
    Full point group: Cs

    Geometry (in Angstrom), charge = 1, multiplicity = 1:

    O           -0.000001769299    -0.000001047145     0.000000000000
    H            0.828627801624    -0.481419288587     0.000000000000
    H           -0.831204837651    -0.476863485208     0.000000000000
    H            0.002605116090     0.958299392747     0.000000000000

2026-03-25:16:33:57,809 INFO     [psi4.optking.optimize:562] 	Optimization Finished

	==> Optimization Summary <==

        
	Measures of convergence in internal coordinates in au. (Any backward steps not shown.)
        
	---------------------------------------------------------------------------------------------------------------  ~
        
	 Step         Total Energy             Delta E       MAX Force       RMS Force        MAX Disp        RMS Disp   ~
        
	---------------------------------------------------------------------------------------------------------------  ~
        
	     1     -76.283640322604    -76.283640322604      0.07954570      0.04527798      0.18674246      0.10560673  ~
	     2     -76.308799574828     -0.025159252225      0.00504689      0.00282237      0.01266699      0.00718723  ~
	     3     -76.308855004002     -0.000055429174      0.00213868      0.00115592      0.00523546      0.00282137  ~
	     4     -76.308863903216     -0.000008899213      0.00086707      0.00045392      0.00215131      0.00112244  ~
	     5     -76.308865279505     -0.000001376290      0.00036214      0.00018247      0.00089563      0.00044621  ~
	     6     -76.308865499305     -0.000000219799      0.00015038      0.00007297      0.00028230      0.00013153  ~
	----------------------------------------------------------------------------------------------------------------


2026-03-25:16:33:57,809 INFO     [psi4.optking.optimize:806] Preparing OptimizationResult
2026-03-25:16:33:57,824 INFO     [psi4.driver.task_planner:259] PLANNING Atomic:  keywords={'SCF__INTS_TOLERANCE': 1e-12, 'REFERENCE': 'RHF', 'function_kwargs': {}}

Scratch directory: /tmp/
2026-03-25:16:33:57,840 INFO     [psi4.driver.task_planner:259] PLANNING Atomic:  keywords={'SCF__D_CONVERGENCE': 1e-08, 'SCF__E_CONVERGENCE': 1e-08, 'SCF__INTS_TOLERANCE': 1e-12, 'REFERENCE': 'RHF', 'function_kwargs': {}}
gradient() will perform analytic gradient computation.
2026-03-25:16:33:57,841 INFO     [psi4.driver.driver:638] Compute gradient(): method=hf, basis=6-31g(d,p), molecule=default, nre=14.209301549526131
   => Libint2 <=

    Primary   basis highest AM E, G, H:  7, 6, 3
    Auxiliary basis highest AM E, G, H:  7, 7, 4
    Onebody   basis highest AM E, G, H:  -, -, -
    Solid Harmonics ordering:            Gaussian

*** tstart() called on Bistromath.dhcp.hunter.cuny.edu
*** at Wed Mar 25 16:33:57 2026

   => Loading Basis Set <=

    Name: 6-31G(D,P)
    Role: ORBITAL
    Keyword: BASIS
    atoms 1   entry O          line   149 file /Users/mskblackbelt/Developer/ir_visuals_widget/.pixi/envs/default/share/psi4/basis/6-31g_d_p_.gbs 
    atoms 2-4 entry H          line    44 file /Users/mskblackbelt/Developer/ir_visuals_widget/.pixi/envs/default/share/psi4/basis/6-31g_d_p_.gbs 


         ---------------------------------------------------------
                                   SCF
               by Justin Turney, Rob Parrish, Andy Simmonett
                          and Daniel G. A. Smith
                              RHF Reference
                        1 Threads,    500 MiB Core
         ---------------------------------------------------------

  ==> Geometry <==

    Molecular point group: cs
    Full point group: Cs

    Geometry (in Angstrom), charge = 1, multiplicity = 1:

       Center              X                  Y                   Z               Mass       
    ------------   -----------------  -----------------  -----------------  -----------------
         O           -0.000001769299    -0.000001047145     0.000000000000    15.994914619570
         H            0.828627801624    -0.481419288587     0.000000000000     1.007825032230
         H           -0.831204837651    -0.476863485208     0.000000000000     1.007825032230
         H            0.002605116090     0.958299392747     0.000000000000     1.007825032230

  Running in cs symmetry.

  Rotational constants: A =     12.14314  B =     12.14222  C =      6.07134 [cm^-1]
  Rotational constants: A = 364042.10547  B = 364014.57431  C = 182014.16968 [MHz]
  Nuclear repulsion =   14.209301549526131

  Charge       = 1
  Multiplicity = 1
  Electrons    = 10
  Nalpha       = 5
  Nbeta        = 5

  ==> Algorithm <==

  SCF Algorithm Type is DF.
  DIIS enabled.
  MOM disabled.
  Fractional occupation disabled.
  Guess Type is SAD.
  Energy threshold   = 1.00e-08
  Density threshold  = 1.00e-08
  Integral threshold = 1.00e-12

  ==> Primary Basis <==

  Basis Set: 6-31G(D,P)
    Blend: 6-31G(D,P)
    Number of shells: 15
    Number of basis functions: 30
    Number of Cartesian functions: 30
    Spherical Harmonics?: false
    Max angular momentum: 2

   => Loading Basis Set <=

    Name: (6-31G(D,P) AUX)
    Role: JKFIT
    Keyword: DF_BASIS_SCF
    atoms 1   entry O          line   221 file /Users/mskblackbelt/Developer/ir_visuals_widget/.pixi/envs/default/share/psi4/basis/cc-pvdz-jkfit.gbs 
    atoms 2-4 entry H          line    51 file /Users/mskblackbelt/Developer/ir_visuals_widget/.pixi/envs/default/share/psi4/basis/cc-pvdz-jkfit.gbs 

  ==> Integral Setup <==

  DFHelper Memory: AOs need 0.001 GiB; user supplied 0.366 GiB. 
  SCF_SUBTYPE=INCORE selected. In-core MEM_DF algorithm will be used.
  Using in-core AOs.

  ==> MemDFJK: Density-Fitted J/K Matrices <==

    J tasked:                   Yes
    K tasked:                   Yes
    wK tasked:                   No
    OpenMP threads:               1
    Memory [MiB]:               375
    Algorithm:                 Core
    Schwarz Cutoff:           1E-12
    Mask sparsity (%):       0.0000
    Fitting Condition:        1E-10

   => Auxiliary Basis Set <=

  Basis Set: (6-31G(D,P) AUX)
    Blend: CC-PVDZ-JKFIT
    Number of shells: 51
    Number of basis functions: 156
    Number of Cartesian functions: 156
    Spherical Harmonics?: false
    Max angular momentum: 3

  Minimum eigenvalue in the overlap matrix is 1.8336527293E-02.
  Reciprocal condition number of the overlap matrix is 3.4118453408E-03.
    Using symmetric orthogonalization.

  ==> Pre-Iterations <==

  SCF Guess: Superposition of Atomic Densities via on-the-fly atomic UHF (no occupation information).

   -------------------------
    Irrep   Nso     Nmo    
   -------------------------
     A'        23      23 
     A"         7       7 
   -------------------------
    Total      30      30
   -------------------------

  ==> Iterations <==

                           Total Energy        Delta E     RMS |[F,P]|

   @DF-RHF iter SAD:   -77.63298690060026   -7.76330e+01   0.00000e+00 
   @DF-RHF iter   1:   -75.99051424142945    1.64247e+00   3.52685e-02 DIIS/ADIIS
   @DF-RHF iter   2:   -76.23241722887272   -2.41903e-01   2.05833e-02 DIIS/ADIIS
   @DF-RHF iter   3:   -76.30733815133517   -7.49209e-02   2.48055e-03 DIIS/ADIIS
   @DF-RHF iter   4:   -76.30885358143358   -1.51543e-03   2.05604e-04 DIIS/ADIIS
   @DF-RHF iter   5:   -76.30886539661317   -1.18152e-05   1.58019e-05 DIIS
   @DF-RHF iter   6:   -76.30886549797988   -1.01367e-07   1.67303e-06 DIIS
   @DF-RHF iter   7:   -76.30886549927065   -1.29077e-09   2.25478e-07 DIIS
   @DF-RHF iter   8:   -76.30886549929797   -2.73133e-11   2.30296e-08 DIIS
   @DF-RHF iter   9:   -76.30886549929821   -2.41585e-13   8.89808e-10 DIIS
  Energy and wave function converged.


  ==> Post-Iterations <==

    Orbital Energies [Eh]
    ---------------------

    Doubly Occupied:                                                      

       1Ap   -21.002860     2Ap    -1.799780     3Ap    -1.154531  
       4Ap    -1.154518     1App   -0.934292  

    Virtual:                                                              

       5Ap    -0.106796     6Ap     0.009374     7Ap     0.009386  
       8Ap     0.665398     9Ap     0.665410    10Ap     0.666629  
       2App    0.767838    11Ap     0.897606    12Ap     0.897609  
      13Ap     1.087536     3App    1.374389     4App    1.374398  
      14Ap     1.975278    15Ap     2.136798    16Ap     2.164407  
      17Ap     2.164459     5App    2.364152     6App    2.683217  
       7App    2.683255    18Ap     2.906535    19Ap     2.906570  
      20Ap     3.351128    21Ap     3.540930    22Ap     3.540951  
      23Ap     4.134244  

    Final Occupation by Irrep:
             Ap   App 
    DOCC [     4,    1 ]
    NA   [     4,    1 ]
    NB   [     4,    1 ]

  @DF-RHF Final Energy:   -76.30886549929821

   => Energetics <=

    Nuclear Repulsion Energy =             14.2093015495261312
    One-Electron Energy =                -128.9443719906583397
    Two-Electron Energy =                  38.4262049418339942
    Total Energy =                        -76.3088654992982072

Computation Completed


Properties will be evaluated at   0.000000,   0.000000,   0.000000 [a0]

Properties computed using the SCF density matrix


 Multipole Moments:

 ------------------------------------------------------------------------------------
     Multipole            Electronic (a.u.)      Nuclear  (a.u.)        Total (a.u.)
 ------------------------------------------------------------------------------------

 L = 1.  Multiply by 2.5417464519 to convert [e a0] to [Debye]
 Dipole X            :          0.0000198            0.0000263            0.0000461
 Dipole Y            :         -0.0000022            0.0000156            0.0000133
 Dipole Z            :          0.0000000            0.0000000            0.0000000
 Magnitude           :                                                    0.0000480

 ------------------------------------------------------------------------------------

*** tstop() called on Bistromath.dhcp.hunter.cuny.edu at Wed Mar 25 16:33:57 2026
Module time:
	user time   =       0.11 seconds =       0.00 minutes
	system time =       0.00 seconds =       0.00 minutes
	total time  =          0 seconds =       0.00 minutes
Total time:
	user time   =       1.82 seconds =       0.03 minutes
	system time =       0.32 seconds =       0.01 minutes
	total time  =         11 seconds =       0.18 minutes

*** tstart() called on Bistromath.dhcp.hunter.cuny.edu
*** at Wed Mar 25 16:33:57 2026


         ------------------------------------------------------------
                                   SCF GRAD                          
                          Rob Parrish, Justin Turney,                
                       Andy Simmonett, and Alex Sokolov              
         ------------------------------------------------------------

  ==> Geometry <==

    Molecular point group: cs
    Full point group: Cs

    Geometry (in Angstrom), charge = 1, multiplicity = 1:

       Center              X                  Y                   Z               Mass       
    ------------   -----------------  -----------------  -----------------  -----------------
         O           -0.000001769299    -0.000001047145     0.000000000000    15.994914619570
         H            0.828627801624    -0.481419288587     0.000000000000     1.007825032230
         H           -0.831204837651    -0.476863485208     0.000000000000     1.007825032230
         H            0.002605116090     0.958299392747     0.000000000000     1.007825032230

  Nuclear repulsion =   14.209301549526131

  ==> Basis Set <==

  Basis Set: 6-31G(D,P)
    Blend: 6-31G(D,P)
    Number of shells: 15
    Number of basis functions: 30
    Number of Cartesian functions: 30
    Spherical Harmonics?: false
    Max angular momentum: 2

  ==> DFJKGrad: Density-Fitted SCF Gradients <==

    Gradient:                    1
    J tasked:                  Yes
    K tasked:                  Yes
    wK tasked:                  No
    OpenMP threads:              1
    Integrals threads:           1
    Memory [MiB]:              375
    Schwarz Cutoff:          1E-12
    Fitting Condition:       1E-10

   => Auxiliary Basis Set <=

  Basis Set: (6-31G(D,P) AUX)
    Blend: CC-PVDZ-JKFIT
    Number of shells: 51
    Number of basis functions: 156
    Number of Cartesian functions: 156
    Spherical Harmonics?: false
    Max angular momentum: 3


  -Total Gradient:
     Atom            X                  Y                   Z
    ------   -----------------  -----------------  -----------------
       1       -0.000043795743    -0.000005255387     0.000000000000
       2        0.000130760364    -0.000074288305     0.000000000000
       3       -0.000085959789    -0.000046086959     0.000000000000
       4       -0.000001004832     0.000125630651     0.000000000000


*** tstop() called on Bistromath.dhcp.hunter.cuny.edu at Wed Mar 25 16:33:57 2026
Module time:
	user time   =       0.01 seconds =       0.00 minutes
	system time =       0.01 seconds =       0.00 minutes
	total time  =          0 seconds =       0.00 minutes
Total time:
	user time   =       1.83 seconds =       0.03 minutes
	system time =       0.33 seconds =       0.01 minutes
	total time  =         11 seconds =       0.18 minutes
2026-03-25:16:33:57,977 INFO     [psi4.driver.driver:641] Return gradient(): -76.30886549929821
2026-03-25:16:33:57,977 INFO     [psi4.driver.driver:642] [[-0.00004380 -0.00000526  0.00000000]
 [ 0.00013076 -0.00007429  0.00000000]
 [-0.00008596 -0.00004609  0.00000000]
 [-0.00000100  0.00012563  0.00000000]]

  Based on options and gradient (rms=6.45E-05), recommend projecting translations and projecting rotations.
2026-03-25:16:33:57,978 INFO     [psi4.driver.driver:1478] Compute hessian(): method=hf, basis=6-31g(d,p), molecule=default, nre=14.209301549526131
hessian() will perform analytic frequency computation.
   => Libint2 <=

    Primary   basis highest AM E, G, H:  7, 6, 3
    Auxiliary basis highest AM E, G, H:  7, 7, 4
    Onebody   basis highest AM E, G, H:  -, -, -
    Solid Harmonics ordering:            Gaussian

*** tstart() called on Bistromath.dhcp.hunter.cuny.edu
*** at Wed Mar 25 16:33:57 2026

   => Loading Basis Set <=

    Name: 6-31G(D,P)
    Role: ORBITAL
    Keyword: BASIS
    atoms 1   entry O          line   149 file /Users/mskblackbelt/Developer/ir_visuals_widget/.pixi/envs/default/share/psi4/basis/6-31g_d_p_.gbs 
    atoms 2-4 entry H          line    44 file /Users/mskblackbelt/Developer/ir_visuals_widget/.pixi/envs/default/share/psi4/basis/6-31g_d_p_.gbs 


         ---------------------------------------------------------
                                   SCF
               by Justin Turney, Rob Parrish, Andy Simmonett
                          and Daniel G. A. Smith
                              RHF Reference
                        1 Threads,    500 MiB Core
         ---------------------------------------------------------

  ==> Geometry <==

    Molecular point group: cs
    Full point group: Cs

    Geometry (in Angstrom), charge = 1, multiplicity = 1:

       Center              X                  Y                   Z               Mass       
    ------------   -----------------  -----------------  -----------------  -----------------
         O           -0.000001769299    -0.000001047145     0.000000000000    15.994914619570
         H            0.828627801624    -0.481419288587     0.000000000000     1.007825032230
         H           -0.831204837651    -0.476863485208     0.000000000000     1.007825032230
         H            0.002605116090     0.958299392747     0.000000000000     1.007825032230

  Running in cs symmetry.

  Rotational constants: A =     12.14314  B =     12.14222  C =      6.07134 [cm^-1]
  Rotational constants: A = 364042.10547  B = 364014.57431  C = 182014.16968 [MHz]
  Nuclear repulsion =   14.209301549526131

  Charge       = 1
  Multiplicity = 1
  Electrons    = 10
  Nalpha       = 5
  Nbeta        = 5

  ==> Algorithm <==

  SCF Algorithm Type is DF.
  DIIS enabled.
  MOM disabled.
  Fractional occupation disabled.
  Guess Type is SAD.
  Energy threshold   = 1.00e-08
  Density threshold  = 1.00e-08
  Integral threshold = 1.00e-12

  ==> Primary Basis <==

  Basis Set: 6-31G(D,P)
    Blend: 6-31G(D,P)
    Number of shells: 15
    Number of basis functions: 30
    Number of Cartesian functions: 30
    Spherical Harmonics?: false
    Max angular momentum: 2

   => Loading Basis Set <=

    Name: (6-31G(D,P) AUX)
    Role: JKFIT
    Keyword: DF_BASIS_SCF
    atoms 1   entry O          line   221 file /Users/mskblackbelt/Developer/ir_visuals_widget/.pixi/envs/default/share/psi4/basis/cc-pvdz-jkfit.gbs 
    atoms 2-4 entry H          line    51 file /Users/mskblackbelt/Developer/ir_visuals_widget/.pixi/envs/default/share/psi4/basis/cc-pvdz-jkfit.gbs 

  ==> Integral Setup <==

  DFHelper Memory: AOs need 0.001 GiB; user supplied 0.366 GiB. 
  SCF_SUBTYPE=INCORE selected. In-core MEM_DF algorithm will be used.
  Using in-core AOs.

  ==> MemDFJK: Density-Fitted J/K Matrices <==

    J tasked:                   Yes
    K tasked:                   Yes
    wK tasked:                   No
    OpenMP threads:               1
    Memory [MiB]:               375
    Algorithm:                 Core
    Schwarz Cutoff:           1E-12
    Mask sparsity (%):       0.0000
    Fitting Condition:        1E-10

   => Auxiliary Basis Set <=

  Basis Set: (6-31G(D,P) AUX)
    Blend: CC-PVDZ-JKFIT
    Number of shells: 51
    Number of basis functions: 156
    Number of Cartesian functions: 156
    Spherical Harmonics?: false
    Max angular momentum: 3

  Minimum eigenvalue in the overlap matrix is 1.8336527293E-02.
  Reciprocal condition number of the overlap matrix is 3.4118453408E-03.
    Using symmetric orthogonalization.

  ==> Pre-Iterations <==

  SCF Guess: Superposition of Atomic Densities via on-the-fly atomic UHF (no occupation information).

   -------------------------
    Irrep   Nso     Nmo    
   -------------------------
     A'        23      23 
     A"         7       7 
   -------------------------
    Total      30      30
   -------------------------

  ==> Iterations <==

                           Total Energy        Delta E     RMS |[F,P]|

   @DF-RHF iter SAD:   -77.63298690059631   -7.76330e+01   0.00000e+00 
   @DF-RHF iter   1:   -75.99051424142618    1.64247e+00   3.52685e-02 DIIS/ADIIS
   @DF-RHF iter   2:   -76.23241722887009   -2.41903e-01   2.05833e-02 DIIS/ADIIS
   @DF-RHF iter   3:   -76.30733815133277   -7.49209e-02   2.48055e-03 DIIS/ADIIS
   @DF-RHF iter   4:   -76.30885358143121   -1.51543e-03   2.05604e-04 DIIS/ADIIS
   @DF-RHF iter   5:   -76.30886539661084   -1.18152e-05   1.58019e-05 DIIS
   @DF-RHF iter   6:   -76.30886549797759   -1.01367e-07   1.67303e-06 DIIS
   @DF-RHF iter   7:   -76.30886549926826   -1.29067e-09   2.25478e-07 DIIS
   @DF-RHF iter   8:   -76.30886549929551   -2.72422e-11   2.30296e-08 DIIS
   @DF-RHF iter   9:   -76.30886549929582   -3.12639e-13   8.89808e-10 DIIS
  Energy and wave function converged.


  ==> Post-Iterations <==

    Orbital Energies [Eh]
    ---------------------

    Doubly Occupied:                                                      

       1Ap   -21.002860     2Ap    -1.799780     3Ap    -1.154531  
       4Ap    -1.154518     1App   -0.934292  

    Virtual:                                                              

       5Ap    -0.106796     6Ap     0.009374     7Ap     0.009386  
       8Ap     0.665398     9Ap     0.665410    10Ap     0.666629  
       2App    0.767838    11Ap     0.897606    12Ap     0.897609  
      13Ap     1.087536     3App    1.374389     4App    1.374398  
      14Ap     1.975278    15Ap     2.136798    16Ap     2.164407  
      17Ap     2.164459     5App    2.364152     6App    2.683217  
       7App    2.683255    18Ap     2.906535    19Ap     2.906570  
      20Ap     3.351128    21Ap     3.540930    22Ap     3.540951  
      23Ap     4.134244  

    Final Occupation by Irrep:
             Ap   App 
    DOCC [     4,    1 ]
    NA   [     4,    1 ]
    NB   [     4,    1 ]

  @DF-RHF Final Energy:   -76.30886549929582

   => Energetics <=

    Nuclear Repulsion Energy =             14.2093015495261312
    One-Electron Energy =                -128.9443719906551564
    Two-Electron Energy =                  38.4262049418332055
    Total Energy =                        -76.3088654992958197

Computation Completed


Properties will be evaluated at   0.000000,   0.000000,   0.000000 [a0]

Properties computed using the SCF density matrix


 Multipole Moments:

 ------------------------------------------------------------------------------------
     Multipole            Electronic (a.u.)      Nuclear  (a.u.)        Total (a.u.)
 ------------------------------------------------------------------------------------

 L = 1.  Multiply by 2.5417464519 to convert [e a0] to [Debye]
 Dipole X            :          0.0000198            0.0000263            0.0000461
 Dipole Y            :         -0.0000022            0.0000156            0.0000133
 Dipole Z            :          0.0000000            0.0000000            0.0000000
 Magnitude           :                                                    0.0000480

 ------------------------------------------------------------------------------------

*** tstop() called on Bistromath.dhcp.hunter.cuny.edu at Wed Mar 25 16:33:58 2026
Module time:
	user time   =       0.10 seconds =       0.00 minutes
	system time =       0.01 seconds =       0.00 minutes
	total time  =          1 seconds =       0.02 minutes
Total time:
	user time   =       1.94 seconds =       0.03 minutes
	system time =       0.34 seconds =       0.01 minutes
	total time  =         12 seconds =       0.20 minutes

*** tstart() called on Bistromath.dhcp.hunter.cuny.edu
*** at Wed Mar 25 16:33:58 2026


         ------------------------------------------------------------
                                   SCF HESS                          
                          Rob Parrish, Justin Turney,                
                       Andy Simmonett, and Alex Sokolov              
         ------------------------------------------------------------

  ==> Geometry <==

    Molecular point group: cs
    Full point group: Cs

    Geometry (in Angstrom), charge = 1, multiplicity = 1:

       Center              X                  Y                   Z               Mass       
    ------------   -----------------  -----------------  -----------------  -----------------
         O           -0.000001769299    -0.000001047145     0.000000000000    15.994914619570
         H            0.828627801624    -0.481419288587     0.000000000000     1.007825032230
         H           -0.831204837651    -0.476863485208     0.000000000000     1.007825032230
         H            0.002605116090     0.958299392747     0.000000000000     1.007825032230

  Nuclear repulsion =   14.209301549526131

  ==> Basis Set <==

  Basis Set: 6-31G(D,P)
    Blend: 6-31G(D,P)
    Number of shells: 15
    Number of basis functions: 30
    Number of Cartesian functions: 30
    Spherical Harmonics?: false
    Max angular momentum: 2

  ==> DFJKGrad: Density-Fitted SCF Gradients <==

    Gradient:                    2
    J tasked:                  Yes
    K tasked:                  Yes
    wK tasked:                  No
    OpenMP threads:              1
    Integrals threads:           1
    Memory [MiB]:              375
    Schwarz Cutoff:          1E-12
    Fitting Condition:       1E-10

   => Auxiliary Basis Set <=

  Basis Set: (6-31G(D,P) AUX)
    Blend: CC-PVDZ-JKFIT
    Number of shells: 51
    Number of basis functions: 156
    Number of Cartesian functions: 156
    Spherical Harmonics?: false
    Max angular momentum: 3

  DFHelper Memory: AOs need 0.001 GiB; user supplied 0.439 GiB. 
  SCF_SUBTYPE=INCORE selected. In-core MEM_DF algorithm will be used.
  Using in-core AOs.

  ==> MemDFJK: Density-Fitted J/K Matrices <==

    J tasked:                   Yes
    K tasked:                   Yes
    wK tasked:                   No
    OpenMP threads:               1
    Memory [MiB]:               450
    Algorithm:                 Core
    Schwarz Cutoff:           1E-12
    Mask sparsity (%):       0.0000
    Fitting Condition:        1E-10

   => Auxiliary Basis Set <=

  Basis Set: (6-31G(D,P) AUX)
    Blend: CC-PVDZ-JKFIT
    Number of shells: 51
    Number of basis functions: 156
    Number of Cartesian functions: 156
    Spherical Harmonics?: false
    Max angular momentum: 3


   ==> Coupled-Perturbed RHF Solver <==

    Maxiter             =         100
    Convergence         =   1.000E-06
    Number of equations =          12
   -----------------------------------------------------
     Iter   Residual RMS      Max RMS  Remain  Time [s]
   -----------------------------------------------------
        1      3.506e-01    5.201e-01      12         0
        2      6.581e-02    9.686e-02      12         0
        3      1.259e-02    2.031e-02      12         0
        4      1.631e-03    2.598e-03      12         0
        5      1.899e-04    3.138e-04      12         0
        6      2.577e-05    3.521e-05      12         0
        7      3.638e-06    5.716e-06      11         0
        8      3.918e-07    5.137e-07       0         0
  ## Total Hessian (Symmetry 0) ##
  Irrep: 1 Size: 12 x 12

                 1                   2                   3                   4                   5

    1     1.00893635468453     0.00009106663871     0.00000000000000    -0.45065264147627     0.20063752709606
    2     0.00009106663871     1.00891030731357     0.00000000000000     0.20063685439016    -0.22187708031639
    3     0.00000000000000     0.00000000000000    -0.03212047169394     0.00000000000000    -0.00000000000000
    4    -0.45065264147627     0.20063685439016     0.00000000000000     0.44420886754974    -0.21653172527006
    5     0.20063752709606    -0.22187708031639    -0.00000000000000    -0.21653172527006     0.19731129596935
    6     0.00000000000000    -0.00000000000000     0.01069371419291    -0.00000000000000     0.00000000000000
    7    -0.45297854869710    -0.19947266522558    -0.00000000000000    -0.01054179827226    -0.01553866927480
    8    -0.19946840474296    -0.21972669693248    -0.00000000000000     0.01573921869837     0.02604737336251
    9    -0.00000000000000    -0.00000000000000     0.01072206043422    -0.00000000000000    -0.00000000000000
   10    -0.10530516445106    -0.00125525582548    -0.00000000000000     0.01698557219909     0.03143286739054
   11    -0.00126018896917    -0.56730653006225    -0.00000000000000     0.00015565214265    -0.00148158906430
   12    -0.00000000000000    -0.00000000000000     0.01070469707508     0.00000000000000     0.00000000000000

                 6                   7                   8                   9                  10

    1     0.00000000000000    -0.45297854869710    -0.19946840474296    -0.00000000000000    -0.10530516445106
    2    -0.00000000000000    -0.19947266522558    -0.21972669693248    -0.00000000000000    -0.00125525582548
    3     0.01069371419291    -0.00000000000000    -0.00000000000000     0.01072206043422    -0.00000000000000
    4    -0.00000000000000    -0.01054179827226     0.01573921869837    -0.00000000000000     0.01698557219909
    5     0.00000000000000    -0.01553866927480     0.02604737336251    -0.00000000000000     0.03143286739054
    6    -0.00350916512881     0.00000000000000    -0.00000000000000    -0.00359281123589     0.00000000000000
    7     0.00000000000000     0.44670653712068     0.21526511344010     0.00000000000000     0.01681380985839
    8    -0.00000000000000     0.21526511344010     0.19498915426601     0.00000000000000    -0.03153592731667
    9    -0.00359281123589     0.00000000000000     0.00000000000000    -0.00353822571202    -0.00000000000000
   10     0.00000000000000     0.01681380985839    -0.03153592731667    -0.00000000000000     0.07150578240915
   11    -0.00000000000000    -0.00025377890721    -0.00130983064528     0.00000000000000     0.00135831575476
   12    -0.00359173782853     0.00000000000000    -0.00000000000000    -0.00359102348575    -0.00000000000000

                11                  12

    1    -0.00126018896917    -0.00000000000000
    2    -0.56730653006225    -0.00000000000000
    3    -0.00000000000000     0.01070469707508
    4     0.00015565214265     0.00000000000000
    5    -0.00148158906430     0.00000000000000
    6    -0.00000000000000    -0.00359173782853
    7    -0.00025377890721     0.00000000000000
    8    -0.00130983064528    -0.00000000000000
    9     0.00000000000000    -0.00359102348575
   10     0.00135831575476    -0.00000000000000
   11     0.57009794985287     0.00000000000000
   12     0.00000000000000    -0.00352193575729




*** tstop() called on Bistromath.dhcp.hunter.cuny.edu at Wed Mar 25 16:33:58 2026
Module time:
	user time   =       0.33 seconds =       0.01 minutes
	system time =       0.00 seconds =       0.00 minutes
	total time  =          0 seconds =       0.00 minutes
Total time:
	user time   =       2.28 seconds =       0.04 minutes
	system time =       0.34 seconds =       0.01 minutes
	total time  =         12 seconds =       0.20 minutes
2026-03-25:16:33:58,440 INFO     [psi4.driver.driver:1482] Return hessian(): -76.30886549929582
2026-03-25:16:33:58,441 INFO     [psi4.driver.driver:1483] [[ 1.00893635  0.00009107  0.00000000 -0.45065264  0.20063753  0.00000000 -0.45297855 -0.19946840 -0.00000000
  -0.10530516 -0.00126019 -0.00000000]
 [ 0.00009107  1.00891031  0.00000000  0.20063685 -0.22187708 -0.00000000 -0.19947267 -0.21972670 -0.00000000
  -0.00125526 -0.56730653 -0.00000000]
 [ 0.00000000  0.00000000 -0.03212047  0.00000000 -0.00000000  0.01069371 -0.00000000 -0.00000000  0.01072206
  -0.00000000 -0.00000000  0.01070470]
 [-0.45065264  0.20063685  0.00000000  0.44420887 -0.21653173 -0.00000000 -0.01054180  0.01573922 -0.00000000
   0.01698557  0.00015565  0.00000000]
 [ 0.20063753 -0.22187708 -0.00000000 -0.21653173  0.19731130  0.00000000 -0.01553867  0.02604737 -0.00000000
   0.03143287 -0.00148159  0.00000000]
 [ 0.00000000 -0.00000000  0.01069371 -0.00000000  0.00000000 -0.00350917  0.00000000 -0.00000000 -0.00359281
   0.00000000 -0.00000000 -0.00359174]
 [-0.45297855 -0.19947267 -0.00000000 -0.01054180 -0.01553867  0.00000000  0.44670654  0.21526511  0.00000000
   0.01681381 -0.00025378  0.00000000]
 [-0.19946840 -0.21972670 -0.00000000  0.01573922  0.02604737 -0.00000000  0.21526511  0.19498915  0.00000000
  -0.03153593 -0.00130983 -0.00000000]
 [-0.00000000 -0.00000000  0.01072206 -0.00000000 -0.00000000 -0.00359281  0.00000000  0.00000000 -0.00353823
  -0.00000000  0.00000000 -0.00359102]
 [-0.10530516 -0.00125526 -0.00000000  0.01698557  0.03143287  0.00000000  0.01681381 -0.03153593 -0.00000000
   0.07150578  0.00135832 -0.00000000]
 [-0.00126019 -0.56730653 -0.00000000  0.00015565 -0.00148159 -0.00000000 -0.00025378 -0.00130983  0.00000000
   0.00135832  0.57009795  0.00000000]
 [-0.00000000 -0.00000000  0.01070470  0.00000000  0.00000000 -0.00359174  0.00000000 -0.00000000 -0.00359102
  -0.00000000  0.00000000 -0.00352194]]


  ==> Harmonic Vibrational Analysis <==

  non-mass-weighted Hessian:       Symmetric? True   Hermitian? True   Lin Dep Dim?  0 (0)
  projection of translations (True) and rotations (True) removed 6 degrees of freedom (6)
  total projector:                 Symmetric? True   Hermitian? True   Lin Dep Dim?  6 (6)
  mass-weighted Hessian:           Symmetric? True   Hermitian? True   Lin Dep Dim?  0 (0)
  pre-proj  low-frequency mode:    0.0000i [cm^-1]
  pre-proj  low-frequency mode:    0.0041  [cm^-1]
  pre-proj  low-frequency mode:    0.0096  [cm^-1]
  pre-proj  low-frequency mode:    0.0121  [cm^-1]
  pre-proj  low-frequency mode:   39.6457  [cm^-1]
  pre-proj  low-frequency mode:   42.4563  [cm^-1]
  pre-proj  low-frequency mode:   45.0960  [cm^-1]
  pre-proj  all modes:['577.7476i' '0.0041' '0.0096' '0.0121' '39.6457' '42.4563' '45.0960'
 '1746.5602' '1746.6294' '3872.1762' '4043.5927' '4043.9983']
  projected mass-weighted Hessian: Symmetric? True   Hermitian? True   Lin Dep Dim?  6 (6)
  post-proj low-frequency mode:  577.7473i [cm^-1] (V)
  post-proj low-frequency mode:    0.0000i [cm^-1] (TR)
  post-proj low-frequency mode:    0.0000i [cm^-1] (TR)
  post-proj low-frequency mode:    0.0000i [cm^-1] (TR)
  post-proj low-frequency mode:    0.0000  [cm^-1] (TR)
  post-proj low-frequency mode:    0.0000  [cm^-1] (TR)
  post-proj low-frequency mode:    0.0001  [cm^-1] (TR)
  post-proj  all modes:['577.7473i' '0.0000i' '0.0000i' '0.0000i' '0.0000' '0.0000' '0.0001'
 '1746.5601' '1746.6294' '3872.1762' '4043.5927' '4043.9983']

  Vibration                       1                   8                   9           
  Freq [cm^-1]                577.7473i           1746.5601           1746.6294       
  Irrep                          App                  Ap                  Ap          
  Reduced mass [u]              1.1842              1.0787              1.0787        
  Force const [mDyne/A]        -0.2329              1.9387              1.9389        
  Turning point v=0 [a0]        0.0000              0.2528              0.2528        
  RMS dev v=0 [a0 u^1/2]        0.0000              0.1857              0.1857        
  IR activ [km/mol]            764.6608            164.3331            164.3560       
  Char temp [K]                 0.0000            2512.9112           2513.0108       
  ----------------------------------------------------------------------------------
      1   O                0.00 -0.00 -0.11    0.04 -0.06  0.00   -0.06 -0.04  0.00   
      2   H                0.00  0.00  0.57    0.24  0.27 -0.00    0.33  0.65 -0.00   
      3   H               -0.00  0.00  0.57   -0.40  0.70 -0.00   -0.10  0.01 -0.00   
      4   H               -0.00 -0.00  0.57   -0.45 -0.07 -0.00    0.67 -0.05 -0.00   

  Vibration                       10                  11                  12          
  Freq [cm^-1]                3872.1762           4043.5927           4043.9983       
  Irrep                           Ap                  Ap                  Ap          
  Reduced mass [u]              1.0078              1.0993              1.0993        
  Force const [mDyne/A]         8.9032             10.5906             10.5927        
  Turning point v=0 [a0]        0.1756              0.1646              0.1646        
  RMS dev v=0 [a0 u^1/2]        0.1247              0.1220              0.1220        
  IR activ [km/mol]             0.0019             733.7366            733.6801       
  Char temp [K]               5571.1994           5817.8297           5818.4131       
  ----------------------------------------------------------------------------------
      1   O               -0.00 -0.00  0.00   -0.05  0.06  0.00   -0.06 -0.05 -0.00   
      2   H                0.50 -0.29 -0.00    0.67 -0.39 -0.00    0.21 -0.11  0.00   
      3   H               -0.50 -0.29 -0.00    0.17  0.08 -0.00    0.69  0.40  0.00   
      4   H                0.00  0.58 -0.00    0.01 -0.59 -0.00    0.01  0.56  0.00   

  ==> Thermochemistry Components <==

  Entropy, S
    Electronic S                             0.000 [cal/(mol K)]        0.000 [J/(mol K)]       0.00000000 [mEh/K] (multiplicity = 1)
    Translational S                         34.771 [cal/(mol K)]      145.480 [J/(mol K)]       0.05541041 [mEh/K] (mol. weight = 19.0184 [u], P = 101325.00 [Pa])
    Rotational S                            13.264 [cal/(mol K)]       55.495 [J/(mol K)]       0.02113705 [mEh/K] (symmetry no. = 1)
    Vibrational S                            0.008 [cal/(mol K)]        0.034 [J/(mol K)]       0.00001305 [mEh/K]
  Total S                                   48.042 [cal/(mol K)]      201.010 [J/(mol K)]       0.07656051 [mEh/K]
  Correction S                               0.000 [cal/(mol K)]        0.000 [J/(mol K)]       0.00000000 [mEh/K]

  Constant volume heat capacity, Cv
    Electronic Cv                            0.000 [cal/(mol K)]        0.000 [J/(mol K)]       0.00000000 [mEh/K]
    Translational Cv                         2.981 [cal/(mol K)]       12.472 [J/(mol K)]       0.00475022 [mEh/K]
    Rotational Cv                            2.981 [cal/(mol K)]       12.472 [J/(mol K)]       0.00475022 [mEh/K]
    Vibrational Cv                           0.062 [cal/(mol K)]        0.258 [J/(mol K)]       0.00009839 [mEh/K]
  Total Cv                                   6.023 [cal/(mol K)]       25.202 [J/(mol K)]       0.00959882 [mEh/K]
  Correction Cv                              0.000 [cal/(mol K)]        0.000 [J/(mol K)]       0.00000000 [mEh/K]

  Constant pressure heat capacity, Cp
    Electronic Cp                            0.000 [cal/(mol K)]        0.000 [J/(mol K)]       0.00000000 [mEh/K]
    Translational Cp                         4.968 [cal/(mol K)]       20.786 [J/(mol K)]       0.00791703 [mEh/K]
    Rotational Cp                            2.981 [cal/(mol K)]       12.472 [J/(mol K)]       0.00475022 [mEh/K]
    Vibrational Cp                           0.062 [cal/(mol K)]        0.258 [J/(mol K)]       0.00009839 [mEh/K]
  Total Cp                                   8.011 [cal/(mol K)]       33.516 [J/(mol K)]       0.01276563 [mEh/K]
  Correction Cp                              0.000 [cal/(mol K)]        0.000 [J/(mol K)]       0.00000000 [mEh/K]

  ==> Thermochemistry Energy Analysis <==

  Raw electronic energy, E_e
  Total E_e, Electronic energy at well bottom                                           -76.30886550 [Eh]

  Zero-point vibrational energy, ZPVE = Sum_i omega_i / 2,  E_0 = E_e + ZPVE
    Vibrational ZPVE                        22.091 [kcal/mol]       92.429 [kJ/mol]       0.03520443 [Eh]        7726.478 [cm^-1]
  Correction ZPVE to E_e                    22.091 [kcal/mol]       92.429 [kJ/mol]       0.03520443 [Eh]        7726.478 [cm^-1]
  Total E_0, Enthalpy at 0 [K]                                                          -76.27366107 [Eh]
  *** Absolute enthalpy, not an enthalpy of formation ***

  Thermal (internal) energy, E (includes ZPVE and finite-temperature corrections)
    Electronic contrib to E beyond E_e       0.000 [kcal/mol]        0.000 [kJ/mol]       0.00000000 [Eh]
    Translational contrib to E               0.889 [kcal/mol]        3.718 [kJ/mol]       0.00141628 [Eh]
    Rotational contrib to E                  0.889 [kcal/mol]        3.718 [kJ/mol]       0.00141628 [Eh]
    Vibrational contrib to E                22.093 [kcal/mol]       92.438 [kJ/mol]       0.03520790 [Eh]
  Correction E                              23.871 [kcal/mol]       99.875 [kJ/mol]       0.03804046 [Eh]
  Total E, Thermal (internal) energy at  298.15 [K]                                     -76.27082504 [Eh]

  Enthalpy, H_trans = E_trans + k_B * T = E_trans + P * V
    Electronic contrib to H beyond E_e       0.000 [kcal/mol]        0.000 [kJ/mol]       0.00000000 [Eh]
    Translational contrib to H               1.481 [kcal/mol]        6.197 [kJ/mol]       0.00236046 [Eh]
    Rotational contrib to H                  0.889 [kcal/mol]        3.718 [kJ/mol]       0.00141628 [Eh]
    Vibrational contrib to H                22.093 [kcal/mol]       92.438 [kJ/mol]       0.03520790 [Eh]
  Correction H                              24.463 [kcal/mol]      102.354 [kJ/mol]       0.03898464 [Eh]
  Total H, Enthalpy at  298.15 [K]                                                      -76.26988086 [Eh]
  *** Absolute enthalpy, not an enthalpy of formation ***

  Gibbs free energy, G = H - T * S
    Electronic contrib to G beyond E_e       0.000 [kcal/mol]        0.000 [kJ/mol]       0.00000000 [Eh]
    Translational contrib to G              -8.886 [kcal/mol]      -37.177 [kJ/mol]      -0.01416015 [Eh]
    Rotational contrib to G                 -3.066 [kcal/mol]      -12.827 [kJ/mol]      -0.00488573 [Eh]
    Vibrational contrib to G                22.091 [kcal/mol]       92.428 [kJ/mol]       0.03520401 [Eh]
  Correction G                              10.139 [kcal/mol]       42.423 [kJ/mol]       0.01615813 [Eh]
  Total G, Gibbs energy at  298.15 [K]                                                  -76.29270737 [Eh]
  *** Absolute Gibbs energy, not a free energy of formation ***


    Psi4 stopped on: Wednesday, 25 March 2026 04:33PM
*** Psi4 exiting successfully. Buy a developer a beer!
