12
0 1 C6H6
C                     0.000000000000     1.397000000000     0.000000000000
C                     1.209500000000     0.698500000000     0.000000000000
C                     1.209500000000    -0.698500000000     0.000000000000
C                     0.000000000000    -1.397000000000     0.000000000000
C                    -1.209500000000    -0.698500000000     0.000000000000
C                    -1.209500000000     0.698500000000     0.000000000000
H                     0.000000000000     2.484000000000     0.000000000000
H                     2.151000000000     1.242000000000     0.000000000000
H                     2.151000000000    -1.242000000000     0.000000000000
H                     0.000000000000    -2.484000000000     0.000000000000
H                    -2.151000000000    -1.242000000000     0.000000000000
H                    -2.151000000000     1.242000000000     0.000000000000
