
    -----------------------------------------------------------------------
          Psi4: An Open-Source Ab Initio Electronic Structure Package
                               Psi4 1.9.1 release

                         Git: Rev {main} zzzzzzz 


    D. G. A. Smith, L. A. Burns, A. C. Simmonett, R. M. Parrish,
    M. C. Schieber, R. Galvelis, P. Kraus, H. Kruse, R. Di Remigio,
    A. Alenaizan, A. M. James, S. Lehtola, J. P. Misiewicz, M. Scheurer,
    R. A. Shaw, J. B. Schriber, Y. Xie, Z. L. Glick, D. A. Sirianni,
    J. S. O'Brien, J. M. Waldrop, A. Kumar, E. G. Hohenstein,
    B. P. Pritchard, B. R. Brooks, H. F. Schaefer III, A. Yu. Sokolov,
    K. Patkowski, A. E. DePrince III, U. Bozkaya, R. A. King,
    F. A. Evangelista, J. M. Turney, T. D. Crawford, C. D. Sherrill,
    J. Chem. Phys. 152(18) 184108 (2020). https://doi.org/10.1063/5.0006002

                            Additional Code Authors
    E. T. Seidl, C. L. Janssen, E. F. Valeev, M. L. Leininger,
    J. F. Gonthier, R. M. Richard, H. R. McAlexander, M. Saitow, X. Wang,
    P. Verma, M. H. Lechner, A. Jiang, S. Behnle, A. G. Heide,
    M. F. Herbst, and D. L. Poole

             Previous Authors, Complete List of Code Contributors,
                       and Citations for Specific Modules
    https://github.com/psi4/psi4/blob/master/codemeta.json
    https://github.com/psi4/psi4/graphs/contributors
    http://psicode.org/psi4manual/master/introduction.html#citing-psifour

    -----------------------------------------------------------------------


    Psi4 started on: Monday, 05 January 2026 04:02PM

    Process ID: 79410
    Host:       sugarcube
    PSIDATADIR: /opt/tljh/user/envs/pchem2/share/psi4
    Memory:     500.0 MiB
    Threads:    1
    2026-01-05:16:03:52,17 INFO     [psi4.optking.optwrapper:234] Creating a UserComputer
2026-01-05:16:03:52,17 INFO     [psi4.optking.optwrapper:242] 
    			-----------------------------------------

    			 OPTKING 3.0: for geometry optimizations 

    			     By R.A. King, Bethel University     

    			        with contributions from          

    			    A.V. Copan, J. Cayton, A. Heide      

    			-----------------------------------------

    
2026-01-05:16:03:52,17 INFO     [psi4.optking.optwrapper:272] 
		 -- Optimization Parameters --
	GEOM_MAXITER                   =              50
	ALG_GEOM_MAXITER               =              50
	PRINT                          =               1
	OPT_TYPE                       =             MIN
	STEP_TYPE                      =             RFO
	PROGRAM                        =            PSI4
	STEEPEST_DESCENT_TYPE          =         OVERLAP
	CONJUGATE_GRADIENT_TYPE        =        FLETCHER
	OPT_COORDINATES                =        INTERNAL
	RFO_FOLLOW_ROOT                =           False
	RFO_ROOT                       =               0
	ACCEPT_SYMMETRY_BREAKING       =           False
	DYNAMIC_LVL                    =               0
	DYNAMIC_LVL_MAX                =               0
	IRC_STEP_SIZE                  =             0.2
	IRC_DIRECTION                  =         FORWARD
	IRC_POINTS                     =              20
	IRC_MODE                       =          NORMAL
	IRC_CONVERGENCE                =            -0.7
	INTRAFRAG_STEP_LIMIT           =             0.5
	INTRAFRAG_STEP_LIMIT_MIN       =           0.001
	INTRAFRAG_STEP_LIMIT_MAX       =             1.0
	INTERFRAG_STEP_LIMIT           =             0.5
	INTERFRAG_STEP_LIMIT_MIN       =           0.001
	INTERFRAG_STEP_LIMIT_MAX       =             1.0
	ENSURE_BT_CONVERGENCE          =           False
	SIMPLE_STEP_SCALING            =           False
	CONSECUTIVE_BACKSTEPS          =               0
	RFO_NORMALIZATION_MAX          =             100
	RSRFO_ALPHA_MAX                =     100000000.0
	PRINT_TRAJECTORY_XYZ_FILE      =           False
	WRITE_TRAJECTORY               =           False
	FROZEN_DISTANCE                =                
	FROZEN_BEND                    =                
	FROZEN_DIHEDRAL                =                
	FROZEN_OOFP                    =                
	FROZEN_CARTESIAN               =                
	FREEZE_ALL_DIHEDRALS           =           False
	UNFREEZE_DIHEDRALS             =                
	RANGED_DISTANCE                =                
	RANGED_BEND                    =                
	RANGED_DIHEDRAL                =                
	RANGED_OOFP                    =                
	RANGED_CARTESIAN               =                
	EXT_FORCE_DISTANCE             =                
	EXT_FORCE_BEND                 =                
	EXT_FORCE_DIHEDRAL             =                
	EXT_FORCE_OOFP                 =                
	EXT_FORCE_CARTESIAN            =                
	G_CONVERGENCE                  =           QCHEM
	MAX_FORCE_G_CONVERGENCE        =          0.0003
	RMS_FORCE_G_CONVERGENCE        =          0.0003
	MAX_ENERGY_G_CONVERGENCE       =           1e-06
	MAX_DISP_G_CONVERGENCE         =          0.0012
	RMS_DISP_G_CONVERGENCE         =          0.0012
	FLEXIBLE_G_CONVERGENCE         =           False
	HESS_UPDATE                    =            BFGS
	HESS_UPDATE_USE_LAST           =               4
	HESS_UPDATE_LIMIT              =            True
	HESS_UPDATE_LIMIT_MAX          =             1.0
	HESS_UPDATE_LIMIT_SCALE        =             0.5
	HESS_UPDATE_DEN_TOL            =           1e-07
	HESS_UPDATE_DQ_TOL             =             0.5
	CART_HESS_READ                 =           False
	HESSIAN_FILE                   =               .
	FULL_HESS_EVERY                =              -1
	INTRAFRAG_HESS                 =        SCHLEGEL
	H_GUESS_EVERY                  =           False
	BT_MAX_ITER                    =              25
	BT_DX_CONV                     =           1e-07
	BT_DX_RMS_CHANGE_CONV          =           1e-12
	BT_PINV_RCOND                  =           1e-06
	FRAG_MODE                      =          SINGLE
	FRAG_REF_ATOMS                 =              []
	FREEZE_INTRAFRAG               =           False
	INTERFRAG_MODE                 =           FIXED
	ADD_AUXILIARY_BONDS            =           False
	AUXILIARY_BOND_FACTOR          =             2.5
	INTERFRAG_DIST_INV             =           False
	INTERFRAG_COLLINEAR_TOL        =            0.01
	INTERFRAG_COORDS               =              []
	INTERFRAG_HESS                 =         DEFAULT
	COVALENT_CONNECT               =             1.3
	INTERFRAGMENT_CONNECT          =             1.8
	H_BOND_CONNECT                 =             4.3
	INCLUDE_OOFP                   =           False
	TEST_B                         =           False
	TEST_DERIVATIVE_B              =           False
	LINESEARCH_STEP                =             0.1
	LINESEARCH                     =           False
	SD_HESSIAN                     =             1.0
	FIX_VAL_NEAR_PI                =            1.57
	V3D_TORS_ANGLE_LIM             =           0.017
	V3D_TORS_COS_TOL               =           1e-10
	LINEAR_BEND_THRESHOLD          =            3.05
	SMALL_BEND_FIX_THRESHOLD       =            0.35
	REDUNDANT_EVAL_TOL             =           1e-10
	LINEAR_ALGEBRA_TOL             =           1e-10


2026-01-05:16:03:52,20 INFO     [psi4.optking.opt_helper:164] Molsys:

	                            ===> Fragment 1 <== 

	 Z (Atomic Numbers)          Masses                          Geom                  
	       8.000000            15.994915          0.00000000 -0.00100141  0.19827842   
	       1.000000             1.007825          1.73854804 -1.00255625 -1.04894082   
	       1.000000             1.007825         -1.73854804 -0.98365899 -1.04894082   
	       1.000000             1.007825          0.00000000  2.00210829 -1.04894082   

	 - Coordinate -           - BOHR/RAD -       - ANG/DEG -
	 R(1,2)           =         2.362460           1.250160
	 R(1,3)           =         2.354511           1.245953
	 R(1,4)           =         2.359662           1.248679
	 B(2,1,3)         =         1.657704          94.979420
	 B(2,1,4)         =         1.651728          94.637028
	 B(3,1,4)         =         1.645168          94.261163
	 O(2,1,3,4)       =         1.447209          82.918986
	 O(3,1,2,4)       =        -1.451390         -83.158508
	 O(4,1,2,3)       =         1.455656          83.402971


Scratch directory: /tmp/
2026-01-05:16:03:52,37 INFO     [psi4.driver.task_planner:285] PLANNING Atomic:  keywords={'SCF__INTS_TOLERANCE': 1e-12, 'REFERENCE': 'RHF', 'function_kwargs': {}}
gradient() will perform analytic gradient computation.
2026-01-05:16:03:52,39 INFO     [psi4.driver.driver:636] Compute gradient(): method=hf, basis=6-31g(d,p), molecule=default, nre=11.03944295511079
   => Libint2 <=

    Primary   basis highest AM E, G, H:  6, 6, 3
    Auxiliary basis highest AM E, G, H:  7, 7, 4
    Onebody   basis highest AM E, G, H:  -, -, -
    Solid Harmonics ordering:            Gaussian

*** tstart() called on sugarcube
*** at Mon Jan  5 16:03:52 2026

   => Loading Basis Set <=

    Name: 6-31G(D,P)
    Role: ORBITAL
    Keyword: BASIS
    atoms 1   entry O          line   149 file /opt/tljh/user/envs/pchem2/share/psi4/basis/6-31g_d_p_.gbs 
    atoms 2-4 entry H          line    44 file /opt/tljh/user/envs/pchem2/share/psi4/basis/6-31g_d_p_.gbs 


         ---------------------------------------------------------
                                   SCF
               by Justin Turney, Rob Parrish, Andy Simmonett
                          and Daniel G. A. Smith
                              RHF Reference
                        1 Threads,    500 MiB Core
         ---------------------------------------------------------

  ==> Geometry <==

    Molecular point group: c1
    Full point group: C1

    Geometry (in Angstrom), charge = 1, multiplicity = 1:

       Center              X                  Y                   Z               Mass       
    ------------   -----------------  -----------------  -----------------  -----------------
         O            0.000000000000    -0.000529921327     0.104924422813    15.994914619570
         H            0.920000000000    -0.530529921327    -0.555075577187     1.007825032230
         H           -0.920000000000    -0.520529921327    -0.555075577187     1.007825032230
         H            0.000000000000     1.059470078673    -0.555075577187     1.007825032230

  Running in c1 symmetry.

  Rotational constants: A =      6.03842  B =      5.98305  C =      4.96674 [cm^-1]
  Rotational constants: A = 181027.31773  B = 179367.31296  C = 148899.22718 [MHz]
  Nuclear repulsion =   11.039442955110790

  Charge       = 1
  Multiplicity = 1
  Electrons    = 10
  Nalpha       = 5
  Nbeta        = 5

  ==> Algorithm <==

  SCF Algorithm Type is DF.
  DIIS enabled.
  MOM disabled.
  Fractional occupation disabled.
  Guess Type is SAD.
  Energy threshold   = 1.00e-08
  Density threshold  = 1.00e-08
  Integral threshold = 1.00e-12

  ==> Primary Basis <==

  Basis Set: 6-31G(D,P)
    Blend: 6-31G(D,P)
    Number of shells: 15
    Number of basis functions: 30
    Number of Cartesian functions: 30
    Spherical Harmonics?: false
    Max angular momentum: 2

   => Loading Basis Set <=

    Name: (6-31G(D,P) AUX)
    Role: JKFIT
    Keyword: DF_BASIS_SCF
    atoms 1   entry O          line   221 file /opt/tljh/user/envs/pchem2/share/psi4/basis/cc-pvdz-jkfit.gbs 
    atoms 2-4 entry H          line    51 file /opt/tljh/user/envs/pchem2/share/psi4/basis/cc-pvdz-jkfit.gbs 

  ==> Integral Setup <==

  DFHelper Memory: AOs need 0.001 GiB; user supplied 0.366 GiB. 
  Using in-core AOs.

  ==> MemDFJK: Density-Fitted J/K Matrices <==

    J tasked:                   Yes
    K tasked:                   Yes
    wK tasked:                   No
    OpenMP threads:               1
    Memory [MiB]:               375
    Algorithm:                 Core
    Schwarz Cutoff:           1E-12
    Mask sparsity (%):       0.0000
    Fitting Condition:        1E-10

   => Auxiliary Basis Set <=

  Basis Set: (6-31G(D,P) AUX)
    Blend: CC-PVDZ-JKFIT
    Number of shells: 51
    Number of basis functions: 156
    Number of Cartesian functions: 156
    Spherical Harmonics?: false
    Max angular momentum: 3

  Minimum eigenvalue in the overlap matrix is 2.5027158402E-02.
  Reciprocal condition number of the overlap matrix is 5.4107214349E-03.
    Using symmetric orthogonalization.

  ==> Pre-Iterations <==

  SCF Guess: Superposition of Atomic Densities via on-the-fly atomic UHF (no occupation information).

   -------------------------
    Irrep   Nso     Nmo    
   -------------------------
     A         30      30 
   -------------------------
    Total      30      30
   -------------------------

  ==> Iterations <==

                           Total Energy        Delta E     RMS |[F,P]|

   @DF-RHF iter SAD:   -75.77476376892487   -7.57748e+01   0.00000e+00 
   @DF-RHF iter   1:   -76.12106088352613   -3.46297e-01   9.31520e-03 DIIS/ADIIS
   @DF-RHF iter   2:   -76.15612887917136   -3.50680e-02   5.51354e-03 DIIS/ADIIS
   @DF-RHF iter   3:   -76.16507291026069   -8.94403e-03   1.31808e-03 DIIS/ADIIS
   @DF-RHF iter   4:   -76.16587195948250   -7.99049e-04   2.96779e-04 DIIS/ADIIS
   @DF-RHF iter   5:   -76.16591008265013   -3.81232e-05   3.90760e-05 DIIS
   @DF-RHF iter   6:   -76.16591132036197   -1.23771e-06   9.17309e-06 DIIS
   @DF-RHF iter   7:   -76.16591147577452   -1.55413e-07   2.11411e-06 DIIS
   @DF-RHF iter   8:   -76.16591148410308   -8.32856e-09   1.92083e-07 DIIS
   @DF-RHF iter   9:   -76.16591148413396   -3.08802e-11   2.27704e-08 DIIS
   @DF-RHF iter  10:   -76.16591148413434   -3.83693e-13   1.98354e-09 DIIS
  Energy and wave function converged.


  ==> Post-Iterations <==

    Orbital Energies [Eh]
    ---------------------

    Doubly Occupied:                                                      

       1A    -21.022610     2A     -1.659295     3A     -0.953729  
       4A     -0.952659     5A     -0.910941  

    Virtual:                                                              

       6A     -0.185874     7A     -0.111202     8A     -0.110097  
       9A      0.602862    10A      0.603737    11A      0.618233  
      12A      0.792989    13A      0.933427    14A      0.934359  
      15A      1.213211    16A      1.391457    17A      1.394181  
      18A      1.575372    19A      1.839160    20A      1.842730  
      21A      1.960110    22A      2.088251    23A      2.091430  
      24A      2.456047    25A      2.458539    26A      2.493360  
      27A      2.893228    28A      3.324242    29A      3.327962  
      30A      3.677985  

    Final Occupation by Irrep:
              A 
    DOCC [     5 ]
    NA   [     5 ]
    NB   [     5 ]

  @DF-RHF Final Energy:   -76.16591148413434

   => Energetics <=

    Nuclear Repulsion Energy =             11.0394429551107898
    One-Electron Energy =                -123.4122405281674162
    Two-Electron Energy =                  36.2068860889222961
    Total Energy =                        -76.1659114841343410

Computation Completed


Properties will be evaluated at   0.000000,   0.000000,   0.000000 [a0]

Properties computed using the SCF density matrix


 Multipole Moments:

 ------------------------------------------------------------------------------------
     Multipole            Electronic (a.u.)      Nuclear  (a.u.)        Total (a.u.)
 ------------------------------------------------------------------------------------

 L = 1.  Multiply by 2.5417464519 to convert [e a0] to [Debye]
 Dipole X            :          0.0019408            0.0000000            0.0019408
 Dipole Y            :         -0.0010158            0.0078818            0.0068660
 Dipole Z            :         -0.0594098           -1.5605951           -1.6200048
 Magnitude           :                                                    1.6200206

 ------------------------------------------------------------------------------------

*** tstop() called on sugarcube at Mon Jan  5 16:03:52 2026
Module time:
	user time   =       0.19 seconds =       0.00 minutes
	system time =       0.01 seconds =       0.00 minutes
	total time  =          0 seconds =       0.00 minutes
Total time:
	user time   =      32.05 seconds =       0.53 minutes
	system time =       0.84 seconds =       0.01 minutes
	total time  =         94 seconds =       1.57 minutes

*** tstart() called on sugarcube
*** at Mon Jan  5 16:03:52 2026


         ------------------------------------------------------------
                                   SCF GRAD                          
                          Rob Parrish, Justin Turney,                
                       Andy Simmonett, and Alex Sokolov              
         ------------------------------------------------------------

  ==> Geometry <==

    Molecular point group: c1
    Full point group: C1

    Geometry (in Angstrom), charge = 1, multiplicity = 1:

       Center              X                  Y                   Z               Mass       
    ------------   -----------------  -----------------  -----------------  -----------------
         O            0.000000000000    -0.000529921327     0.104924422813    15.994914619570
         H            0.920000000000    -0.530529921327    -0.555075577187     1.007825032230
         H           -0.920000000000    -0.520529921327    -0.555075577187     1.007825032230
         H            0.000000000000     1.059470078673    -0.555075577187     1.007825032230

  Nuclear repulsion =   11.039442955110790

  ==> Basis Set <==

  Basis Set: 6-31G(D,P)
    Blend: 6-31G(D,P)
    Number of shells: 15
    Number of basis functions: 30
    Number of Cartesian functions: 30
    Spherical Harmonics?: false
    Max angular momentum: 2

  ==> DFJKGrad: Density-Fitted SCF Gradients <==

    Gradient:                    1
    J tasked:                  Yes
    K tasked:                  Yes
    wK tasked:                  No
    OpenMP threads:              1
    Integrals threads:           1
    Memory [MiB]:              375
    Schwarz Cutoff:          1E-12
    Fitting Condition:       1E-10

   => Auxiliary Basis Set <=

  Basis Set: (6-31G(D,P) AUX)
    Blend: CC-PVDZ-JKFIT
    Number of shells: 51
    Number of basis functions: 156
    Number of Cartesian functions: 156
    Spherical Harmonics?: false
    Max angular momentum: 3


  -Total Gradient:
     Atom            X                  Y                   Z
    ------   -----------------  -----------------  -----------------
       1        0.000335694130    -0.001477956542     0.226511668233
       2        0.080661412513    -0.046111090401    -0.075314325930
       3       -0.080650575360    -0.044828946333    -0.075555151808
       4       -0.000346531283     0.092417993276    -0.075642190496


*** tstop() called on sugarcube at Mon Jan  5 16:03:52 2026
Module time:
	user time   =       0.03 seconds =       0.00 minutes
	system time =       0.00 seconds =       0.00 minutes
	total time  =          0 seconds =       0.00 minutes
Total time:
	user time   =      32.08 seconds =       0.53 minutes
	system time =       0.84 seconds =       0.01 minutes
	total time  =         94 seconds =       1.57 minutes
2026-01-05:16:03:52,265 INFO     [psi4.driver.driver:639] Return gradient(): -76.16591148413434
2026-01-05:16:03:52,265 INFO     [psi4.driver.driver:640] [[ 0.00033569 -0.00147796  0.22651167]
 [ 0.08066141 -0.04611109 -0.07531433]
 [-0.08065058 -0.04482895 -0.07555515]
 [-0.00034653  0.09241799 -0.07564219]]

    			-----------------------------------------

    			 OPTKING 3.0: for geometry optimizations 

    			     By R.A. King, Bethel University     

    			        with contributions from          

    			    A.V. Copan, J. Cayton, A. Heide      

    			-----------------------------------------

    
	                            ===> Fragment 1 <== 

	 Z (Atomic Numbers)          Masses                          Geom                  
	       8.000000            15.994915          0.00000000 -0.00100141  0.19827842   
	       1.000000             1.007825          1.73854804 -1.00255625 -1.04894082   
	       1.000000             1.007825         -1.73854804 -0.98365899 -1.04894082   
	       1.000000             1.007825          0.00000000  2.00210829 -1.04894082   

	 - Coordinate -           - BOHR/RAD -       - ANG/DEG -
	 R(1,2)           =         2.362460           1.250160
	 R(1,3)           =         2.354511           1.245953
	 R(1,4)           =         2.359662           1.248679
	 B(2,1,3)         =         1.657704          94.979420
	 B(2,1,4)         =         1.651728          94.637028
	 B(3,1,4)         =         1.645168          94.261163
	 O(2,1,3,4)       =         1.447209          82.918986
	 O(3,1,2,4)       =        -1.451390         -83.158508
	 O(4,1,2,3)       =         1.455656          83.402971
2026-01-05:16:03:52,271 INFO     [psi4.optking.molsys:944] Projected (PHP) Hessian matrix
	   0.213384   0.000000   0.000000   0.000000   0.000000   0.000000   0.000000
	   0.000000   0.000000
	   0.000000   0.215936   0.000000   0.000000   0.000000   0.000000   0.000000
	   0.000000   0.000000
	   0.000000   0.000000   0.214278   0.000000   0.000000   0.000000   0.000000
	   0.000000   0.000000
	   0.000000   0.000000   0.000000   0.160000   0.000000   0.000000   0.000000
	   0.000000   0.000000
	   0.000000   0.000000   0.000000   0.000000   0.160000   0.000000   0.000000
	   0.000000   0.000000
	   0.000000   0.000000   0.000000   0.000000   0.000000   0.160000   0.000000
	   0.000000   0.000000
	   0.000000   0.000000   0.000000   0.000000   0.000000   0.000000   0.197396
	   0.000000   0.000000
	   0.000000   0.000000   0.000000   0.000000   0.000000   0.000000   0.000000
	   0.199687   0.000000
	   0.000000   0.000000   0.000000   0.000000   0.000000   0.000000   0.000000
	   0.000000   0.202045

2026-01-05:16:03:52,271 INFO     [psi4.optking.opt_helper:182] 
	         Geometry (au)                                       Gradient (au)
   0.0000000000  -0.0010014062   0.1982784230		   0.0003356941  -0.0014779565   0.2265116682
   1.7385480354  -1.0025562527  -1.0489408198		   0.0806614125  -0.0461110904  -0.0753143259
  -1.7385480354  -0.9836589914  -1.0489408198		  -0.0806505754  -0.0448289463  -0.0755551518
   0.0000000000   2.0021082868  -1.0489408198		  -0.0003465313   0.0924179933  -0.0756421905

2026-01-05:16:03:52,272 INFO     [psi4.optking.stepAlgorithms:929] 	Using RFO solution 1.
2026-01-05:16:03:52,274 INFO     [psi4.optking.displace:100] 	Determining Cartesian step for fragment 1.
2026-01-05:16:03:52,280 INFO     [psi4.optking.displace:415] 	Successfully converged to displaced geometry.
2026-01-05:16:03:52,280 INFO     [psi4.optking.displace:416] 	RMS(dx):  1.446e-10 	Max(dx):  2.665e-10 	RMS(dq):  1.460e-04
2026-01-05:16:03:52,280 WARNING  [psi4.optking.displace:426] 	Previous geometry is closer to target in internal coordinates, so using that one.

2026-01-05:16:03:52,280 WARNING  [psi4.optking.displace:429] 	Best geometry has RMS(Delta(q)) = 1.46e-04

2026-01-05:16:03:52,282 INFO     [psi4.optking.displace:172] 

	        --- Internal Coordinate Step in ANG or DEG, aJ/ANG or AJ/DEG ---
	-------------------------------------------------------------------------------
	           Coordinate      Previous         Force          Change          New 
	           ----------      --------        ------          ------        ------
	               R(1,2)       1.25016       -0.97768       -0.15216       1.09800
	               R(1,3)       1.24595       -0.97451       -0.15074       1.09522
	               R(1,4)       1.24868       -0.97575       -0.15153       1.09714
	             B(2,1,3)      94.97942        0.00051        0.97849      95.95791
	             B(2,1,4)      94.63703        0.00059        1.12737      95.76440
	             B(3,1,4)      94.26116        0.00069        1.34363      95.60479
	           O(2,1,3,4)      82.91899       -0.00085       -1.66464      81.25435
	           O(3,1,2,4)     -83.15851        0.00092        1.80026     -81.35825
	           O(4,1,2,3)      83.40297       -0.00098       -1.91300      81.48997
	-------------------------------------------------------------------------------

2026-01-05:16:03:52,282 INFO     [psi4.optking.stepAlgorithms:113] 	|target step| :    0.4999994383
2026-01-05:16:03:52,282 INFO     [psi4.optking.stepAlgorithms:114] 	gradient     :   -0.2066954056
2026-01-05:16:03:52,282 INFO     [psi4.optking.stepAlgorithms:115] 	hessian      :    0.2140803772
2026-01-05:16:03:52,282 INFO     [psi4.optking.stepAlgorithms:113] 	|target step| :    0.5000000004
2026-01-05:16:03:52,282 INFO     [psi4.optking.stepAlgorithms:114] 	gradient     :   -0.2066954643
2026-01-05:16:03:52,282 INFO     [psi4.optking.stepAlgorithms:115] 	hessian      :    0.2140804590
2026-01-05:16:03:52,282 INFO     [psi4.optking.stepAlgorithms:206] 	Norm of achieved step-size    0.4999994383
2026-01-05:16:03:52,283 INFO     [psi4.optking.stepAlgorithms:208] 	Norm of achieved step-size (cart):    0.4219352424
2026-01-05:16:03:52,284 INFO     [psi4.optking.opt_helper:164] Molsys:

	                            ===> Fragment 1 <== 

	 Z (Atomic Numbers)          Masses                          Geom                  
	       8.000000            15.994915         -0.00061021  0.00115445  0.06494753   
	       1.000000             1.007825          1.53856992 -0.88842575 -1.00502475   
	       1.000000             1.007825         -1.54040434 -0.87555589 -1.00458536   
	       1.000000             1.007825          0.00244464  1.77771883 -1.00388146   

	 - Coordinate -           - BOHR/RAD -       - ANG/DEG -
	 R(1,2)           =         2.074914           1.097997
	 R(1,3)           =         2.069659           1.095216
	 R(1,4)           =         2.073303           1.097145
	 B(2,1,3)         =         1.674781          95.957910
	 B(2,1,4)         =         1.671404          95.764397
	 B(3,1,4)         =         1.668618          95.604794
	 O(2,1,3,4)       =         1.418156          81.254348
	 O(3,1,2,4)       =        -1.419969         -81.358248
	 O(4,1,2,3)       =         1.422268          81.489974



	        --- Internal Coordinate Step in ANG or DEG, aJ/ANG or AJ/DEG ---
	-------------------------------------------------------------------------------
	           Coordinate      Previous         Force          Change          New 
	           ----------      --------        ------          ------        ------
	               R(1,2)       1.25016       -0.97768       -0.15216       1.09800
	               R(1,3)       1.24595       -0.97451       -0.15074       1.09522
	               R(1,4)       1.24868       -0.97575       -0.15153       1.09714
	             B(2,1,3)      94.97942        0.00051        0.97849      95.95791
	             B(2,1,4)      94.63703        0.00059        1.12737      95.76440
	             B(3,1,4)      94.26116        0.00069        1.34363      95.60479
	           O(2,1,3,4)      82.91899       -0.00085       -1.66464      81.25435
	           O(3,1,2,4)     -83.15851        0.00092        1.80026     -81.35825
	           O(4,1,2,3)      83.40297       -0.00098       -1.91300      81.48997
	-------------------------------------------------------------------------------

	                                 ==> Convergence Check <==                                  
    
	Measures of convergence in internal coordinates in au.
    
	Criteria marked as inactive (o), active & met (*), and active & unmet ( ).

	----------------------------------------------------------------------------------------------~
	   Step    Total Energy     Delta E     Max Force     RMS Force      Max Disp      RMS Disp   ~
	----------------------------------------------------------------------------------------------~
	  Convergence Criteria     1.00e-06 *    3.00e-04 *             o    1.20e-03 *             o~
	----------------------------------------------------------------------------------------------~
	     1     -76.16591148   -7.62e+01      1.19e-01      6.89e-02 o    2.88e-01      1.67e-01 o  ~
	----------------------------------------------------------------------------------------------

Next Geometry in Ang 
	Fragment 1 (Ang)

	    O  -0.0003229084   0.0006109094   0.0343687527
	    H   0.8141761362  -0.4701346606  -0.5318361941
	    H  -0.8151468731  -0.4633242259  -0.5316036786
	    H   0.0012936453   0.9407282918  -0.5312311888

2026-01-05:16:03:52,284 INFO     [psi4.optking.convcheck:76] Performing convergence check.
2026-01-05:16:03:52,284 INFO     [psi4.optking.convcheck:282] 
	                                 ==> Convergence Check <==                                  
    
	Measures of convergence in internal coordinates in au.
    
	Criteria marked as inactive (o), active & met (*), and active & unmet ( ).

	----------------------------------------------------------------------------------------------~
	   Step    Total Energy     Delta E     Max Force     RMS Force      Max Disp      RMS Disp   ~
	----------------------------------------------------------------------------------------------~
	  Convergence Criteria     1.00e-06 *    3.00e-04 *             o    1.20e-03 *             o~
	----------------------------------------------------------------------------------------------~
	     1     -76.16591148   -7.62e+01      1.19e-01      6.89e-02 o    2.88e-01      1.67e-01 o  ~
	----------------------------------------------------------------------------------------------


2026-01-05:16:03:52,284 INFO     [psi4.optking.stepAlgorithms:296] 	Convergence check returned False

    Structure for next step:
    Molecular point group: c1
    Full point group: C1

    Geometry (in Angstrom), charge = 1, multiplicity = 1:

    O           -0.000068446429    -0.000288101119     0.089968841072
    H            0.814430598251    -0.471033671049    -0.476236105698
    H           -0.814892411100    -0.464223236384    -0.476003590213
    H            0.001548107345     0.939829281266    -0.475631100461


Scratch directory: /tmp/
2026-01-05:16:03:52,301 INFO     [psi4.driver.task_planner:285] PLANNING Atomic:  keywords={'SCF__GUESS': 'READ', 'SCF__INTS_TOLERANCE': 1e-12, 'REFERENCE': 'RHF', 'function_kwargs': {}}
gradient() will perform analytic gradient computation.
2026-01-05:16:03:52,303 INFO     [psi4.driver.driver:636] Compute gradient(): method=hf, basis=6-31g(d,p), molecule=default, nre=12.555114061574612
   => Libint2 <=

    Primary   basis highest AM E, G, H:  6, 6, 3
    Auxiliary basis highest AM E, G, H:  7, 7, 4
    Onebody   basis highest AM E, G, H:  -, -, -
    Solid Harmonics ordering:            Gaussian

*** tstart() called on sugarcube
*** at Mon Jan  5 16:03:52 2026

   => Loading Basis Set <=

    Name: 6-31G(D,P)
    Role: ORBITAL
    Keyword: BASIS
    atoms 1   entry O          line   149 file /opt/tljh/user/envs/pchem2/share/psi4/basis/6-31g_d_p_.gbs 
    atoms 2-4 entry H          line    44 file /opt/tljh/user/envs/pchem2/share/psi4/basis/6-31g_d_p_.gbs 


         ---------------------------------------------------------
                                   SCF
               by Justin Turney, Rob Parrish, Andy Simmonett
                          and Daniel G. A. Smith
                              RHF Reference
                        1 Threads,    500 MiB Core
         ---------------------------------------------------------

  ==> Geometry <==

    Molecular point group: c1
    Full point group: C1

    Geometry (in Angstrom), charge = 1, multiplicity = 1:

       Center              X                  Y                   Z               Mass       
    ------------   -----------------  -----------------  -----------------  -----------------
         O           -0.000068446429    -0.000288101119     0.089968841072    15.994914619570
         H            0.814430598251    -0.471033671049    -0.476236105698     1.007825032230
         H           -0.814892411100    -0.464223236384    -0.476003590213     1.007825032230
         H            0.001548107345     0.939829281266    -0.475631100461     1.007825032230

  Running in c1 symmetry.

  Rotational constants: A =      7.86419  B =      7.82654  C =      6.31671 [cm^-1]
  Rotational constants: A = 235762.49046  B = 234633.64192  C = 189370.13600 [MHz]
  Nuclear repulsion =   12.555114061574612

  Charge       = 1
  Multiplicity = 1
  Electrons    = 10
  Nalpha       = 5
  Nbeta        = 5

  ==> Algorithm <==

  SCF Algorithm Type is DF.
  DIIS enabled.
  MOM disabled.
  Fractional occupation disabled.
  Guess Type is READ.
  Energy threshold   = 1.00e-08
  Density threshold  = 1.00e-08
  Integral threshold = 1.00e-12

  ==> Primary Basis <==

  Basis Set: 6-31G(D,P)
    Blend: 6-31G(D,P)
    Number of shells: 15
    Number of basis functions: 30
    Number of Cartesian functions: 30
    Spherical Harmonics?: false
    Max angular momentum: 2

   => Loading Basis Set <=

    Name: (6-31G(D,P) AUX)
    Role: JKFIT
    Keyword: DF_BASIS_SCF
    atoms 1   entry O          line   221 file /opt/tljh/user/envs/pchem2/share/psi4/basis/cc-pvdz-jkfit.gbs 
    atoms 2-4 entry H          line    51 file /opt/tljh/user/envs/pchem2/share/psi4/basis/cc-pvdz-jkfit.gbs 

   => Loading Basis Set <=

    Name: 6-31G(D,P)
    Role: ORBITAL
    Keyword: BASIS
    atoms 1   entry O          line   149 file /opt/tljh/user/envs/pchem2/share/psi4/basis/6-31g_d_p_.gbs 
    atoms 2-4 entry H          line    44 file /opt/tljh/user/envs/pchem2/share/psi4/basis/6-31g_d_p_.gbs 

  Reading orbitals from file /tmp/pyramidal_h30.default.79410.180.npy, no projection.

  ==> Integral Setup <==

  DFHelper Memory: AOs need 0.001 GiB; user supplied 0.366 GiB. 
  Using in-core AOs.

  ==> MemDFJK: Density-Fitted J/K Matrices <==

    J tasked:                   Yes
    K tasked:                   Yes
    wK tasked:                   No
    OpenMP threads:               1
    Memory [MiB]:               375
    Algorithm:                 Core
    Schwarz Cutoff:           1E-12
    Mask sparsity (%):       0.0000
    Fitting Condition:        1E-10

   => Auxiliary Basis Set <=

  Basis Set: (6-31G(D,P) AUX)
    Blend: CC-PVDZ-JKFIT
    Number of shells: 51
    Number of basis functions: 156
    Number of Cartesian functions: 156
    Spherical Harmonics?: false
    Max angular momentum: 3

  Minimum eigenvalue in the overlap matrix is 2.1025303801E-02.
  Reciprocal condition number of the overlap matrix is 4.1296834558E-03.
    Using symmetric orthogonalization.

  ==> Pre-Iterations <==

  SCF Guess: Orbitals guess was supplied from a previous computation.

   -------------------------------------------------------
    Irrep   Nso     Nmo     Nalpha   Nbeta   Ndocc  Nsocc
   -------------------------------------------------------
     A         30      30       5       5       5       0
   -------------------------------------------------------
    Total      30      30       5       5       5       0
   -------------------------------------------------------

  ==> Iterations <==

                           Total Energy        Delta E     RMS |[F,P]|

   @DF-RHF iter   0:   -76.53514173252243   -7.65351e+01   8.29370e-03 
   @DF-RHF iter   1:   -76.25415561064715    2.80986e-01   2.47050e-03 DIIS/ADIIS
   @DF-RHF iter   2:   -76.25636812677561   -2.21252e-03   1.51390e-03 DIIS/ADIIS
   @DF-RHF iter   3:   -76.25704838342962   -6.80257e-04   1.96195e-04 DIIS/ADIIS
   @DF-RHF iter   4:   -76.25708569929711   -3.73159e-05   7.11431e-05 DIIS
   @DF-RHF iter   5:   -76.25709193423492   -6.23494e-06   1.85866e-05 DIIS
   @DF-RHF iter   6:   -76.25709245587566   -5.21641e-07   2.29133e-06 DIIS
   @DF-RHF iter   7:   -76.25709246085411   -4.97845e-09   2.99740e-07 DIIS
   @DF-RHF iter   8:   -76.25709246090493   -5.08180e-11   2.39383e-08 DIIS
   @DF-RHF iter   9:   -76.25709246090531   -3.83693e-13   2.65976e-09 DIIS
  Energy and wave function converged.


  ==> Post-Iterations <==

    Orbital Energies [Eh]
    ---------------------

    Doubly Occupied:                                                      

       1A    -21.032854     2A     -1.746817     3A     -1.039979  
       4A     -1.039148     5A     -0.962478  

    Virtual:                                                              

       6A     -0.150288     7A     -0.058467     8A     -0.057664  
       9A      0.587746    10A      0.588433    11A      0.679846  
      12A      0.775779    13A      0.910409    14A      0.910555  
      15A      1.218428    16A      1.309691    17A      1.311320  
      18A      1.652541    19A      2.027334    20A      2.061020  
      21A      2.063541    22A      2.219213    23A      2.222995  
      24A      2.673670    25A      2.675267    26A      2.749197  
      27A      3.034115    28A      3.474240    29A      3.475610  
      30A      3.771647  

    Final Occupation by Irrep:
              A 
    DOCC [     5 ]
    NA   [     5 ]
    NB   [     5 ]

  @DF-RHF Final Energy:   -76.25709246090531

   => Energetics <=

    Nuclear Repulsion Energy =             12.5551140615746117
    One-Electron Energy =                -125.9818616969505172
    Two-Electron Energy =                  37.1696551744705772
    Total Energy =                        -76.2570924609053264

Computation Completed


Properties will be evaluated at   0.000000,   0.000000,   0.000000 [a0]

Properties computed using the SCF density matrix


 Multipole Moments:

 ------------------------------------------------------------------------------------
     Multipole            Electronic (a.u.)      Nuclear  (a.u.)        Total (a.u.)
 ------------------------------------------------------------------------------------

 L = 1.  Multiply by 2.5417464519 to convert [e a0] to [Debye]
 Dipole X            :          0.0008522            0.0010180            0.0018702
 Dipole Y            :         -0.0003546            0.0042851            0.0039304
 Dipole Z            :         -0.0420162           -1.3381530           -1.3801692
 Magnitude           :                                                    1.3801761

 ------------------------------------------------------------------------------------

*** tstop() called on sugarcube at Mon Jan  5 16:03:52 2026
Module time:
	user time   =       0.12 seconds =       0.00 minutes
	system time =       0.00 seconds =       0.00 minutes
	total time  =          0 seconds =       0.00 minutes
Total time:
	user time   =      32.24 seconds =       0.54 minutes
	system time =       0.84 seconds =       0.01 minutes
	total time  =         94 seconds =       1.57 minutes

*** tstart() called on sugarcube
*** at Mon Jan  5 16:03:52 2026


         ------------------------------------------------------------
                                   SCF GRAD                          
                          Rob Parrish, Justin Turney,                
                       Andy Simmonett, and Alex Sokolov              
         ------------------------------------------------------------

  ==> Geometry <==

    Molecular point group: c1
    Full point group: C1

    Geometry (in Angstrom), charge = 1, multiplicity = 1:

       Center              X                  Y                   Z               Mass       
    ------------   -----------------  -----------------  -----------------  -----------------
         O           -0.000068446429    -0.000288101119     0.089968841072    15.994914619570
         H            0.814430598251    -0.471033671049    -0.476236105698     1.007825032230
         H           -0.814892411100    -0.464223236384    -0.476003590213     1.007825032230
         H            0.001548107345     0.939829281266    -0.475631100461     1.007825032230

  Nuclear repulsion =   12.555114061574612

  ==> Basis Set <==

  Basis Set: 6-31G(D,P)
    Blend: 6-31G(D,P)
    Number of shells: 15
    Number of basis functions: 30
    Number of Cartesian functions: 30
    Spherical Harmonics?: false
    Max angular momentum: 2

  ==> DFJKGrad: Density-Fitted SCF Gradients <==

    Gradient:                    1
    J tasked:                  Yes
    K tasked:                  Yes
    wK tasked:                  No
    OpenMP threads:              1
    Integrals threads:           1
    Memory [MiB]:              375
    Schwarz Cutoff:          1E-12
    Fitting Condition:       1E-10

   => Auxiliary Basis Set <=

  Basis Set: (6-31G(D,P) AUX)
    Blend: CC-PVDZ-JKFIT
    Number of shells: 51
    Number of basis functions: 156
    Number of Cartesian functions: 156
    Spherical Harmonics?: false
    Max angular momentum: 3


  -Total Gradient:
     Atom            X                  Y                   Z
    ------   -----------------  -----------------  -----------------
       1       -0.000584832511    -0.000950110056     0.182230824441
       2        0.051834250932    -0.029678388064    -0.060842071649
       3       -0.051141190118    -0.028596338909    -0.060517513208
       4       -0.000108228304     0.059224837029    -0.060871239584


*** tstop() called on sugarcube at Mon Jan  5 16:03:52 2026
Module time:
	user time   =       0.02 seconds =       0.00 minutes
	system time =       0.00 seconds =       0.00 minutes
	total time  =          0 seconds =       0.00 minutes
Total time:
	user time   =      32.26 seconds =       0.54 minutes
	system time =       0.84 seconds =       0.01 minutes
	total time  =         94 seconds =       1.57 minutes
2026-01-05:16:03:52,460 INFO     [psi4.driver.driver:639] Return gradient(): -76.25709246090531
2026-01-05:16:03:52,461 INFO     [psi4.driver.driver:640] [[-0.00058483 -0.00095011  0.18223082]
 [ 0.05183425 -0.02967839 -0.06084207]
 [-0.05114119 -0.02859634 -0.06051751]
 [-0.00010823  0.05922484 -0.06087124]]

    			-----------------------------------------

    			 OPTKING 3.0: for geometry optimizations 

    			     By R.A. King, Bethel University     

    			        with contributions from          

    			    A.V. Copan, J. Cayton, A. Heide      

    			-----------------------------------------

    
	                            ===> Fragment 1 <== 

	 Z (Atomic Numbers)          Masses                          Geom                  
	       8.000000            15.994915         -0.00012935 -0.00054443  0.17001647   
	       1.000000             1.007825          1.53905078 -0.89012463 -0.89995581   
	       1.000000             1.007825         -1.53992348 -0.87725478 -0.89951642   
	       1.000000             1.007825          0.00292550  1.77601995 -0.89881252   

	 - Coordinate -           - BOHR/RAD -       - ANG/DEG -
	 R(1,2)           =         2.074914           1.097997
	 R(1,3)           =         2.069659           1.095216
	 R(1,4)           =         2.073303           1.097145
	 B(2,1,3)         =         1.674781          95.957910
	 B(2,1,4)         =         1.671404          95.764397
	 B(3,1,4)         =         1.668618          95.604794
	 O(2,1,3,4)       =         1.418156          81.254348
	 O(3,1,2,4)       =        -1.419969         -81.358248
	 O(4,1,2,3)       =         1.422268          81.489974
2026-01-05:16:03:52,464 INFO     [psi4.optking.history:269] 	Performing BFGS update.
2026-01-05:16:03:52,465 INFO     [psi4.optking.history:280] 	Using 1 previous steps for update.
2026-01-05:16:03:52,465 INFO     [psi4.optking.history:317] 	Steps to be used in Hessian update:  1

2026-01-05:16:03:52,466 INFO     [psi4.optking.history:418] 	Updated Hessian (in au) 
 	   0.185261  -0.027445  -0.027908   0.006293   0.006420   0.006272  -0.010265
	   0.010211  -0.010257
	  -0.027445   0.189186  -0.027225   0.006353   0.006473   0.006310  -0.010361
	   0.010298  -0.010337
	  -0.027908  -0.027225   0.186587   0.006306   0.006431   0.006279  -0.010286
	   0.010230  -0.010273
	   0.006293   0.006353   0.006306   0.092842  -0.020164  -0.021068  -0.054757
	   0.057243   0.024707
	   0.006420   0.006473   0.006431  -0.020164   0.097056  -0.022107  -0.052636
	  -0.024843  -0.057481
	   0.006272   0.006310   0.006279  -0.021068  -0.022107   0.102136   0.024988
	   0.052503  -0.054832
	  -0.010265  -0.010361  -0.010286  -0.054757  -0.052636   0.024988   0.077634
	  -0.029280   0.026029
	   0.010211   0.010298   0.010230   0.057243  -0.024843   0.052503  -0.029280
	   0.079718  -0.022145
	  -0.010257  -0.010337  -0.010273   0.024707  -0.057481  -0.054832   0.026029
	  -0.022145   0.081891

2026-01-05:16:03:52,468 INFO     [psi4.optking.molsys:944] Projected (PHP) Hessian matrix
	   0.185261  -0.027445  -0.027908   0.006293   0.006420   0.006272  -0.010265
	   0.010211  -0.010257
	  -0.027445   0.189186  -0.027225   0.006353   0.006473   0.006310  -0.010361
	   0.010298  -0.010337
	  -0.027908  -0.027225   0.186587   0.006306   0.006431   0.006279  -0.010286
	   0.010230  -0.010273
	   0.006293   0.006353   0.006306   0.092842  -0.020164  -0.021068  -0.054757
	   0.057243   0.024707
	   0.006420   0.006473   0.006431  -0.020164   0.097056  -0.022107  -0.052636
	  -0.024843  -0.057481
	   0.006272   0.006310   0.006279  -0.021068  -0.022107   0.102136   0.024988
	   0.052503  -0.054832
	  -0.010265  -0.010361  -0.010286  -0.054757  -0.052636   0.024988   0.077634
	  -0.029280   0.026029
	   0.010211   0.010298   0.010230   0.057243  -0.024843   0.052503  -0.029280
	   0.079718  -0.022145
	  -0.010257  -0.010337  -0.010273   0.024707  -0.057481  -0.054832   0.026029
	  -0.022145   0.081891

2026-01-05:16:03:52,468 INFO     [psi4.optking.opt_helper:182] 
	         Geometry (au)                                       Gradient (au)
  -0.0001293450  -0.0005444322   0.1700164695		  -0.0005848325  -0.0009501101   0.1822308244
   1.5390507789  -0.8901246342  -0.8999558108		   0.0518342509  -0.0296783881  -0.0608420716
  -1.5399234787  -0.8772547778  -0.8995164202		  -0.0511411901  -0.0285963389  -0.0605175132
   0.0029254989   1.7760199463  -0.8988125166		  -0.0001082283   0.0592248370  -0.0608712396

2026-01-05:16:03:52,469 INFO     [psi4.optking.stepAlgorithms:368] 	Current Step Report 
 
	Current energy:       -76.2570924609
	Energy change for the previous step:
		Actual       :        -0.0911809768
		Projected    :        -0.0612701398

2026-01-05:16:03:52,469 INFO     [psi4.optking.stepAlgorithms:371] 	Energy ratio =    1.48818
2026-01-05:16:03:52,469 INFO     [psi4.optking.stepAlgorithms:399] 	Energy ratio indicates good step.
2026-01-05:16:03:52,469 INFO     [psi4.optking.stepAlgorithms:400] 	Intrafrag trust radius increased to      1.
2026-01-05:16:03:52,469 INFO     [psi4.optking.stepAlgorithms:929] 	Using RFO solution 1.
2026-01-05:16:03:52,470 INFO     [psi4.optking.displace:100] 	Determining Cartesian step for fragment 1.
2026-01-05:16:03:52,477 INFO     [psi4.optking.displace:415] 	Successfully converged to displaced geometry.
2026-01-05:16:03:52,477 INFO     [psi4.optking.displace:416] 	RMS(dx):  2.460e-09 	Max(dx):  4.715e-09 	RMS(dq):  1.115e-03
2026-01-05:16:03:52,478 INFO     [psi4.optking.displace:172] 

	        --- Internal Coordinate Step in ANG or DEG, aJ/ANG or AJ/DEG ---
	-------------------------------------------------------------------------------
	           Coordinate      Previous         Force          Change          New 
	           ----------      --------        ------          ------        ------
	               R(1,2)       1.09800       -0.68010       -0.20015       0.89785
	               R(1,3)       1.09522       -0.67092       -0.19540       0.89981
	               R(1,4)       1.09714       -0.67663       -0.19846       0.89869
	             B(2,1,3)      95.95791        0.00068        3.14445      99.10236
	             B(2,1,4)      95.76440        0.00072        3.29609      99.06049
	             B(3,1,4)      95.60479        0.00077        3.40791      99.01270
	           O(2,1,3,4)      81.25435       -0.00112       -5.32191      75.93244
	           O(3,1,2,4)     -81.35825        0.00115        5.39545     -75.96280
	           O(4,1,2,3)      81.48997       -0.00118       -5.50038      75.98959
	-------------------------------------------------------------------------------

2026-01-05:16:03:52,479 INFO     [psi4.optking.stepAlgorithms:113] 	|target step| :    0.6757380095
2026-01-05:16:03:52,479 INFO     [psi4.optking.stepAlgorithms:114] 	gradient     :   -0.1450352426
2026-01-05:16:03:52,479 INFO     [psi4.optking.stepAlgorithms:115] 	hessian      :    0.1166172617
2026-01-05:16:03:52,479 INFO     [psi4.optking.stepAlgorithms:113] 	|target step| :    0.6757631385
2026-01-05:16:03:52,479 INFO     [psi4.optking.stepAlgorithms:114] 	gradient     :   -0.1450352677
2026-01-05:16:03:52,479 INFO     [psi4.optking.stepAlgorithms:115] 	hessian      :    0.1166149264
2026-01-05:16:03:52,479 INFO     [psi4.optking.stepAlgorithms:206] 	Norm of achieved step-size    0.6757380095
2026-01-05:16:03:52,479 INFO     [psi4.optking.stepAlgorithms:208] 	Norm of achieved step-size (cart):    0.5393491986
2026-01-05:16:03:52,480 INFO     [psi4.optking.opt_helper:164] Molsys:

	                            ===> Fragment 1 <== 

	 Z (Atomic Numbers)          Masses                          Geom                  
	       8.000000            15.994915          0.00165703  0.00133445 -0.02332202   
	       1.000000             1.007825          1.29030763 -0.74641291 -0.83512195   
	       1.000000             1.007825         -1.29482801 -0.74046667 -0.83586632   
	       1.000000             1.007825          0.00478681  1.49364123 -0.83395799   

	 - Coordinate -           - BOHR/RAD -       - ANG/DEG -
	 R(1,2)           =         1.696693           0.897851
	 R(1,3)           =         1.700403           0.899815
	 R(1,4)           =         1.698270           0.898686
	 B(2,1,3)         =         1.729662          99.102358
	 B(2,1,4)         =         1.728932          99.060488
	 B(3,1,4)         =         1.728098          99.012704
	 O(2,1,3,4)       =         1.325271          75.932435
	 O(3,1,2,4)       =        -1.325801         -75.962797
	 O(4,1,2,3)       =         1.326269          75.989592



	        --- Internal Coordinate Step in ANG or DEG, aJ/ANG or AJ/DEG ---
	-------------------------------------------------------------------------------
	           Coordinate      Previous         Force          Change          New 
	           ----------      --------        ------          ------        ------
	               R(1,2)       1.09800       -0.68010       -0.20015       0.89785
	               R(1,3)       1.09522       -0.67092       -0.19540       0.89981
	               R(1,4)       1.09714       -0.67663       -0.19846       0.89869
	             B(2,1,3)      95.95791        0.00068        3.14445      99.10236
	             B(2,1,4)      95.76440        0.00072        3.29609      99.06049
	             B(3,1,4)      95.60479        0.00077        3.40791      99.01270
	           O(2,1,3,4)      81.25435       -0.00112       -5.32191      75.93244
	           O(3,1,2,4)     -81.35825        0.00115        5.39545     -75.96280
	           O(4,1,2,3)      81.48997       -0.00118       -5.50038      75.98959
	-------------------------------------------------------------------------------

	                                 ==> Convergence Check <==                                  
    
	Measures of convergence in internal coordinates in au.
    
	Criteria marked as inactive (o), active & met (*), and active & unmet ( ).

	----------------------------------------------------------------------------------------------
	   Step    Total Energy     Delta E     Max Force     RMS Force      Max Disp      RMS Disp   
	----------------------------------------------------------------------------------------------
	  Convergence Criteria     1.00e-06 *    3.00e-04 *             o    1.20e-03 *             o
	----------------------------------------------------------------------------------------------
	     2     -76.25709246   -9.12e-02      8.25e-02      4.85e-02 o    3.78e-01      2.25e-01 o  ~
	----------------------------------------------------------------------------------------------

Next Geometry in Ang 
	Fragment 1 (Ang)

	    O   0.0008768604   0.0007061628  -0.0123414794
	    H   0.6828013908  -0.3949847038  -0.4419275057
	    H  -0.6851934726  -0.3918380880  -0.4423214077
	    H   0.0025330695   0.7904009018  -0.4413115625

2026-01-05:16:03:52,480 INFO     [psi4.optking.convcheck:76] Performing convergence check.
2026-01-05:16:03:52,481 INFO     [psi4.optking.convcheck:282] 
	                                 ==> Convergence Check <==                                  
    
	Measures of convergence in internal coordinates in au.
    
	Criteria marked as inactive (o), active & met (*), and active & unmet ( ).

	----------------------------------------------------------------------------------------------
	   Step    Total Energy     Delta E     Max Force     RMS Force      Max Disp      RMS Disp   
	----------------------------------------------------------------------------------------------
	  Convergence Criteria     1.00e-06 *    3.00e-04 *             o    1.20e-03 *             o
	----------------------------------------------------------------------------------------------
	     2     -76.25709246   -9.12e-02      8.25e-02      4.85e-02 o    3.78e-01      2.25e-01 o  ~
	----------------------------------------------------------------------------------------------


2026-01-05:16:03:52,481 INFO     [psi4.optking.stepAlgorithms:296] 	Convergence check returned False

    Structure for next step:
    Molecular point group: c1
    Full point group: C1

    Geometry (in Angstrom), charge = 1, multiplicity = 1:

    O            0.000131928863    -0.000077348467     0.068282272740
    H            0.682056459323    -0.395768214992    -0.361303753554
    H           -0.685938404141    -0.392621599264    -0.361697655546
    H            0.001788138018     0.789617390550    -0.360687810344


Scratch directory: /tmp/
2026-01-05:16:03:52,498 INFO     [psi4.driver.task_planner:285] PLANNING Atomic:  keywords={'SCF__GUESS': 'READ', 'SCF__INTS_TOLERANCE': 1e-12, 'REFERENCE': 'RHF', 'function_kwargs': {}}
gradient() will perform analytic gradient computation.
2026-01-05:16:03:52,500 INFO     [psi4.driver.driver:636] Compute gradient(): method=hf, basis=6-31g(d,p), molecule=default, nre=15.291419801740133
   => Libint2 <=

    Primary   basis highest AM E, G, H:  6, 6, 3
    Auxiliary basis highest AM E, G, H:  7, 7, 4
    Onebody   basis highest AM E, G, H:  -, -, -
    Solid Harmonics ordering:            Gaussian

*** tstart() called on sugarcube
*** at Mon Jan  5 16:03:52 2026

   => Loading Basis Set <=

    Name: 6-31G(D,P)
    Role: ORBITAL
    Keyword: BASIS
    atoms 1   entry O          line   149 file /opt/tljh/user/envs/pchem2/share/psi4/basis/6-31g_d_p_.gbs 
    atoms 2-4 entry H          line    44 file /opt/tljh/user/envs/pchem2/share/psi4/basis/6-31g_d_p_.gbs 


         ---------------------------------------------------------
                                   SCF
               by Justin Turney, Rob Parrish, Andy Simmonett
                          and Daniel G. A. Smith
                              RHF Reference
                        1 Threads,    500 MiB Core
         ---------------------------------------------------------

  ==> Geometry <==

    Molecular point group: c1
    Full point group: C1

    Geometry (in Angstrom), charge = 1, multiplicity = 1:

       Center              X                  Y                   Z               Mass       
    ------------   -----------------  -----------------  -----------------  -----------------
         O            0.000131928863    -0.000077348467     0.068282272740    15.994914619570
         H            0.682056459323    -0.395768214992    -0.361303753554     1.007825032230
         H           -0.685938404141    -0.392621599264    -0.361697655546     1.007825032230
         H            0.001788138018     0.789617390550    -0.360687810344     1.007825032230

  Running in c1 symmetry.

  Rotational constants: A =     11.95292  B =     11.93469  C =      8.94479 [cm^-1]
  Rotational constants: A = 358339.37918  B = 357792.97043  C = 268157.97706 [MHz]
  Nuclear repulsion =   15.291419801740133

  Charge       = 1
  Multiplicity = 1
  Electrons    = 10
  Nalpha       = 5
  Nbeta        = 5

  ==> Algorithm <==

  SCF Algorithm Type is DF.
  DIIS enabled.
  MOM disabled.
  Fractional occupation disabled.
  Guess Type is READ.
  Energy threshold   = 1.00e-08
  Density threshold  = 1.00e-08
  Integral threshold = 1.00e-12

  ==> Primary Basis <==

  Basis Set: 6-31G(D,P)
    Blend: 6-31G(D,P)
    Number of shells: 15
    Number of basis functions: 30
    Number of Cartesian functions: 30
    Spherical Harmonics?: false
    Max angular momentum: 2

   => Loading Basis Set <=

    Name: (6-31G(D,P) AUX)
    Role: JKFIT
    Keyword: DF_BASIS_SCF
    atoms 1   entry O          line   221 file /opt/tljh/user/envs/pchem2/share/psi4/basis/cc-pvdz-jkfit.gbs 
    atoms 2-4 entry H          line    51 file /opt/tljh/user/envs/pchem2/share/psi4/basis/cc-pvdz-jkfit.gbs 

   => Loading Basis Set <=

    Name: 6-31G(D,P)
    Role: ORBITAL
    Keyword: BASIS
    atoms 1   entry O          line   149 file /opt/tljh/user/envs/pchem2/share/psi4/basis/6-31g_d_p_.gbs 
    atoms 2-4 entry H          line    44 file /opt/tljh/user/envs/pchem2/share/psi4/basis/6-31g_d_p_.gbs 

  Reading orbitals from file /tmp/pyramidal_h30.default.79410.180.npy, no projection.

  ==> Integral Setup <==

  DFHelper Memory: AOs need 0.001 GiB; user supplied 0.366 GiB. 
  Using in-core AOs.

  ==> MemDFJK: Density-Fitted J/K Matrices <==

    J tasked:                   Yes
    K tasked:                   Yes
    wK tasked:                   No
    OpenMP threads:               1
    Memory [MiB]:               375
    Algorithm:                 Core
    Schwarz Cutoff:           1E-12
    Mask sparsity (%):       0.0000
    Fitting Condition:        1E-10

   => Auxiliary Basis Set <=

  Basis Set: (6-31G(D,P) AUX)
    Blend: CC-PVDZ-JKFIT
    Number of shells: 51
    Number of basis functions: 156
    Number of Cartesian functions: 156
    Spherical Harmonics?: false
    Max angular momentum: 3

  Minimum eigenvalue in the overlap matrix is 1.5694710985E-02.
  Reciprocal condition number of the overlap matrix is 2.7234579149E-03.
    Using symmetric orthogonalization.

  ==> Pre-Iterations <==

  SCF Guess: Orbitals guess was supplied from a previous computation.

   -------------------------------------------------------
    Irrep   Nso     Nmo     Nalpha   Nbeta   Ndocc  Nsocc
   -------------------------------------------------------
     A         30      30       5       5       5       0
   -------------------------------------------------------
    Total      30      30       5       5       5       0
   -------------------------------------------------------

  ==> Iterations <==

                           Total Energy        Delta E     RMS |[F,P]|

   @DF-RHF iter   0:   -76.75693831932182   -7.67569e+01   1.77696e-02 
   @DF-RHF iter   1:   -76.27167496657528    4.85263e-01   3.65382e-03 DIIS/ADIIS
   @DF-RHF iter   2:   -76.27690235478070   -5.22739e-03   1.75163e-03 DIIS/ADIIS
   @DF-RHF iter   3:   -76.27771021504694   -8.07860e-04   2.49145e-04 DIIS/ADIIS
   @DF-RHF iter   4:   -76.27775559831284   -4.53833e-05   6.35663e-05 DIIS
   @DF-RHF iter   5:   -76.27775950584797   -3.90754e-06   1.42341e-05 DIIS
   @DF-RHF iter   6:   -76.27775973355507   -2.27707e-07   1.90676e-06 DIIS
   @DF-RHF iter   7:   -76.27775973658657   -3.03150e-09   1.94826e-07 DIIS
   @DF-RHF iter   8:   -76.27775973661124   -2.46700e-11   2.23667e-08 DIIS
   @DF-RHF iter   9:   -76.27775973661164   -3.97904e-13   2.25906e-09 DIIS
  Energy and wave function converged.


  ==> Post-Iterations <==

    Orbital Energies [Eh]
    ---------------------

    Doubly Occupied:                                                      

       1A    -21.037639     2A     -1.902325     3A     -1.183365  
       4A     -1.182638     5A     -1.024436  

    Virtual:                                                              

       6A     -0.105518     7A      0.008128     8A      0.008597  
       9A      0.611703    10A      0.612332    11A      0.710634  
      12A      0.868878    13A      0.898044    14A      0.898390  
      15A      1.202178    16A      1.271672    17A      1.272098  
      18A      1.833759    19A      2.200320    20A      2.330033  
      21A      2.331135    22A      2.518574    23A      2.520708  
      24A      3.031022    25A      3.031971    26A      3.094918  
      27A      3.377114    28A      3.668202    29A      3.670899  
      30A      3.936652  

    Final Occupation by Irrep:
              A 
    DOCC [     5 ]
    NA   [     5 ]
    NB   [     5 ]

  @DF-RHF Final Energy:   -76.27775973661164

   => Energetics <=

    Nuclear Repulsion Energy =             15.2914198017401333
    One-Electron Energy =                -130.4775547575601706
    Two-Electron Energy =                  38.9083752192084020
    Total Energy =                        -76.2777597366116424

Computation Completed


Properties will be evaluated at   0.000000,   0.000000,   0.000000 [a0]

Properties computed using the SCF density matrix


 Multipole Moments:

 ------------------------------------------------------------------------------------
     Multipole            Electronic (a.u.)      Nuclear  (a.u.)        Total (a.u.)
 ------------------------------------------------------------------------------------

 L = 1.  Multiply by 2.5417464519 to convert [e a0] to [Debye]
 Dipole X            :         -0.0001968           -0.0019622           -0.0021590
 Dipole Y            :         -0.0001050            0.0011504            0.0010454
 Dipole Z            :         -0.0275423           -1.0155975           -1.0431398
 Magnitude           :                                                    1.0431426

 ------------------------------------------------------------------------------------

*** tstop() called on sugarcube at Mon Jan  5 16:03:52 2026
Module time:
	user time   =       0.12 seconds =       0.00 minutes
	system time =       0.00 seconds =       0.00 minutes
	total time  =          0 seconds =       0.00 minutes
Total time:
	user time   =      32.43 seconds =       0.54 minutes
	system time =       0.84 seconds =       0.01 minutes
	total time  =         94 seconds =       1.57 minutes

*** tstart() called on sugarcube
*** at Mon Jan  5 16:03:52 2026


         ------------------------------------------------------------
                                   SCF GRAD                          
                          Rob Parrish, Justin Turney,                
                       Andy Simmonett, and Alex Sokolov              
         ------------------------------------------------------------

  ==> Geometry <==

    Molecular point group: c1
    Full point group: C1

    Geometry (in Angstrom), charge = 1, multiplicity = 1:

       Center              X                  Y                   Z               Mass       
    ------------   -----------------  -----------------  -----------------  -----------------
         O            0.000131928863    -0.000077348467     0.068282272740    15.994914619570
         H            0.682056459323    -0.395768214992    -0.361303753554     1.007825032230
         H           -0.685938404141    -0.392621599264    -0.361697655546     1.007825032230
         H            0.001788138018     0.789617390550    -0.360687810344     1.007825032230

  Nuclear repulsion =   15.291419801740133

  ==> Basis Set <==

  Basis Set: 6-31G(D,P)
    Blend: 6-31G(D,P)
    Number of shells: 15
    Number of basis functions: 30
    Number of Cartesian functions: 30
    Spherical Harmonics?: false
    Max angular momentum: 2

  ==> DFJKGrad: Density-Fitted SCF Gradients <==

    Gradient:                    1
    J tasked:                  Yes
    K tasked:                  Yes
    wK tasked:                  No
    OpenMP threads:              1
    Integrals threads:           1
    Memory [MiB]:              375
    Schwarz Cutoff:          1E-12
    Fitting Condition:       1E-10

   => Auxiliary Basis Set <=

  Basis Set: (6-31G(D,P) AUX)
    Blend: CC-PVDZ-JKFIT
    Number of shells: 51
    Number of basis functions: 156
    Number of Cartesian functions: 156
    Spherical Harmonics?: false
    Max angular momentum: 3


  -Total Gradient:
     Atom            X                  Y                   Z
    ------   -----------------  -----------------  -----------------
       1        0.002403899041     0.000169794114    -0.052595162628
       2       -0.087548883720     0.050937185559     0.018307084398
       3        0.085416544795     0.049078521682     0.016782789813
       4       -0.000271560116    -0.100185501354     0.017505288416


*** tstop() called on sugarcube at Mon Jan  5 16:03:52 2026
Module time:
	user time   =       0.02 seconds =       0.00 minutes
	system time =       0.00 seconds =       0.00 minutes
	total time  =          0 seconds =       0.00 minutes
Total time:
	user time   =      32.46 seconds =       0.54 minutes
	system time =       0.84 seconds =       0.01 minutes
	total time  =         94 seconds =       1.57 minutes
2026-01-05:16:03:52,660 INFO     [psi4.driver.driver:639] Return gradient(): -76.27775973661164
2026-01-05:16:03:52,660 INFO     [psi4.driver.driver:640] [[ 0.00240390  0.00016979 -0.05259516]
 [-0.08754888  0.05093719  0.01830708]
 [ 0.08541654  0.04907852  0.01678279]
 [-0.00027156 -0.10018550  0.01750529]]

    			-----------------------------------------

    			 OPTKING 3.0: for geometry optimizations 

    			     By R.A. King, Bethel University     

    			        with contributions from          

    			    A.V. Copan, J. Cayton, A. Heide      

    			-----------------------------------------

    
	                            ===> Fragment 1 <== 

	 Z (Atomic Numbers)          Masses                          Geom                  
	       8.000000            15.994915          0.00024931 -0.00014617  0.12903479   
	       1.000000             1.007825          1.28889991 -0.74789354 -0.68276514   
	       1.000000             1.007825         -1.29623572 -0.74194729 -0.68350951   
	       1.000000             1.007825          0.00337909  1.49216061 -0.68160118   

	 - Coordinate -           - BOHR/RAD -       - ANG/DEG -
	 R(1,2)           =         1.696693           0.897851
	 R(1,3)           =         1.700403           0.899815
	 R(1,4)           =         1.698270           0.898686
	 B(2,1,3)         =         1.729662          99.102358
	 B(2,1,4)         =         1.728932          99.060488
	 B(3,1,4)         =         1.728098          99.012704
	 O(2,1,3,4)       =         1.325271          75.932435
	 O(3,1,2,4)       =        -1.325801         -75.962797
	 O(4,1,2,3)       =         1.326269          75.989592
2026-01-05:16:03:52,664 INFO     [psi4.optking.history:269] 	Performing BFGS update.
2026-01-05:16:03:52,665 INFO     [psi4.optking.history:280] 	Using 2 previous steps for update.
2026-01-05:16:03:52,666 WARNING  [psi4.optking.history:301] 	Change in internal coordinate of 6.66e-01 exceeds limit of 5.00e-01.
2026-01-05:16:03:52,666 WARNING  [psi4.optking.history:306] 	Skipping Hessian update for step 1.
2026-01-05:16:03:52,666 INFO     [psi4.optking.history:317] 	Steps to be used in Hessian update:  2

2026-01-05:16:03:52,667 INFO     [psi4.optking.history:418] 	Updated Hessian (in au) 
 	   0.309822   0.093456   0.095177   0.010972   0.010994   0.010759  -0.018676
	   0.018529  -0.018539
	   0.093456   0.306517   0.092236   0.010982   0.011003   0.010762  -0.018659
	   0.018508  -0.018518
	   0.095177   0.092236   0.308209   0.010964   0.010986   0.010750  -0.018650
	   0.018503  -0.018513
	   0.010972   0.010982   0.010964   0.095594  -0.022287  -0.022283  -0.054219
	   0.055296   0.025545
	   0.010994   0.011003   0.010986  -0.022287   0.097212  -0.022431  -0.053041
	  -0.025365  -0.055365
	   0.010759   0.010762   0.010750  -0.022283  -0.022431   0.098235   0.025158
	   0.052865  -0.054103
	  -0.018676  -0.018659  -0.018650  -0.054219  -0.053041   0.025158   0.078259
	  -0.027738   0.026142
	   0.018529   0.018508   0.018503   0.055296  -0.025365   0.052865  -0.027738
	   0.079060  -0.024622
	  -0.018539  -0.018518  -0.018513   0.025545  -0.055365  -0.054103   0.026142
	  -0.024622   0.080176

2026-01-05:16:03:52,668 INFO     [psi4.optking.molsys:944] Projected (PHP) Hessian matrix
	   0.309822   0.093456   0.095177   0.010972   0.010994   0.010759  -0.018676
	   0.018529  -0.018539
	   0.093456   0.306517   0.092236   0.010982   0.011003   0.010762  -0.018659
	   0.018508  -0.018518
	   0.095177   0.092236   0.308209   0.010964   0.010986   0.010750  -0.018650
	   0.018503  -0.018513
	   0.010972   0.010982   0.010964   0.095594  -0.022287  -0.022283  -0.054219
	   0.055296   0.025545
	   0.010994   0.011003   0.010986  -0.022287   0.097212  -0.022431  -0.053041
	  -0.025365  -0.055365
	   0.010759   0.010762   0.010750  -0.022283  -0.022431   0.098235   0.025158
	   0.052865  -0.054103
	  -0.018676  -0.018659  -0.018650  -0.054219  -0.053041   0.025158   0.078259
	  -0.027738   0.026142
	   0.018529   0.018508   0.018503   0.055296  -0.025365   0.052865  -0.027738
	   0.079060  -0.024622
	  -0.018539  -0.018518  -0.018513   0.025545  -0.055365  -0.054103   0.026142
	  -0.024622   0.080176

2026-01-05:16:03:52,668 INFO     [psi4.optking.opt_helper:182] 
	         Geometry (au)                                       Gradient (au)
   0.0002493094  -0.0001461674   0.1290347947		   0.0024038990   0.0001697941  -0.0525951626
   1.2888999102  -0.7478935355  -0.6827651423		  -0.0875488837   0.0509371856   0.0183070844
  -1.2962357228  -0.7419472935  -0.6835095092		   0.0854165448   0.0490785217   0.0167827898
   0.0033790911   1.4921606120  -0.6816011783		  -0.0002715601  -0.1001855014   0.0175052884

2026-01-05:16:03:52,669 INFO     [psi4.optking.stepAlgorithms:368] 	Current Step Report 
 
	Current energy:       -76.2777597366
	Energy change for the previous step:
		Actual       :        -0.0206672757
		Projected    :        -0.0490047438

2026-01-05:16:03:52,669 INFO     [psi4.optking.stepAlgorithms:371] 	Energy ratio =    0.42174
2026-01-05:16:03:52,670 INFO     [psi4.optking.stepAlgorithms:929] 	Using RFO solution 1.
2026-01-05:16:03:52,671 INFO     [psi4.optking.displace:100] 	Determining Cartesian step for fragment 1.
2026-01-05:16:03:52,677 INFO     [psi4.optking.displace:415] 	Successfully converged to displaced geometry.
2026-01-05:16:03:52,677 INFO     [psi4.optking.displace:416] 	RMS(dx):  5.985e-11 	Max(dx):  1.186e-10 	RMS(dq):  1.974e-04
2026-01-05:16:03:52,679 INFO     [psi4.optking.displace:172] 

	        --- Internal Coordinate Step in ANG or DEG, aJ/ANG or AJ/DEG ---
	-------------------------------------------------------------------------------
	           Coordinate      Previous         Force          Change          New 
	           ----------      --------        ------          ------        ------
	               R(1,2)       0.89785        0.80494        0.09206       0.98991
	               R(1,3)       0.89981        0.77903        0.08794       0.98775
	               R(1,4)       0.89869        0.79414        0.09042       0.98910
	             B(2,1,3)      99.10236        0.00082        1.24413     100.34649
	             B(2,1,4)      99.06049        0.00084        1.28981     100.35030
	             B(3,1,4)      99.01270        0.00084        1.35442     100.36713
	           O(2,1,3,4)      75.93244       -0.00142       -2.22440      73.70803
	           O(3,1,2,4)     -75.96280        0.00143        2.26528     -73.69751
	           O(4,1,2,3)      75.98959       -0.00144       -2.29446      73.69513
	-------------------------------------------------------------------------------

2026-01-05:16:03:52,679 INFO     [psi4.optking.stepAlgorithms:113] 	|target step| :    0.3054208899
2026-01-05:16:03:52,679 INFO     [psi4.optking.stepAlgorithms:114] 	gradient     :   -0.1707307631
2026-01-05:16:03:52,679 INFO     [psi4.optking.stepAlgorithms:115] 	hessian      :    0.5068531097
2026-01-05:16:03:52,679 INFO     [psi4.optking.stepAlgorithms:113] 	|target step| :    0.3054226209
2026-01-05:16:03:52,679 INFO     [psi4.optking.stepAlgorithms:114] 	gradient     :   -0.1707308947
2026-01-05:16:03:52,679 INFO     [psi4.optking.stepAlgorithms:115] 	hessian      :    0.5068537755
2026-01-05:16:03:52,679 INFO     [psi4.optking.stepAlgorithms:206] 	Norm of achieved step-size    0.3054208899
2026-01-05:16:03:52,679 INFO     [psi4.optking.stepAlgorithms:208] 	Norm of achieved step-size (cart):    0.2899423921
2026-01-05:16:03:52,680 INFO     [psi4.optking.opt_helper:164] Molsys:

	                            ===> Fragment 1 <== 

	 Z (Atomic Numbers)          Masses                          Geom                  
	       8.000000            15.994915         -0.00207014 -0.00002256  0.16791883   
	       1.000000             1.007825          1.43272163 -0.83276566 -0.69652738   
	       1.000000             1.007825         -1.43740240 -0.82334077 -0.69584203   
	       1.000000             1.007825          0.00304350  1.65830261 -0.69439045   

	 - Coordinate -           - BOHR/RAD -       - ANG/DEG -
	 R(1,2)           =         1.870656           0.989909
	 R(1,3)           =         1.866578           0.987751
	 R(1,4)           =         1.869130           0.989101
	 B(2,1,3)         =         1.751377         100.346486
	 B(2,1,4)         =         1.751443         100.350302
	 B(3,1,4)         =         1.751737         100.367126
	 O(2,1,3,4)       =         1.286448          73.708033
	 O(3,1,2,4)       =        -1.286264         -73.697514
	 O(4,1,2,3)       =         1.286223          73.695131



	        --- Internal Coordinate Step in ANG or DEG, aJ/ANG or AJ/DEG ---
	-------------------------------------------------------------------------------
	           Coordinate      Previous         Force          Change          New 
	           ----------      --------        ------          ------        ------
	               R(1,2)       0.89785        0.80494        0.09206       0.98991
	               R(1,3)       0.89981        0.77903        0.08794       0.98775
	               R(1,4)       0.89869        0.79414        0.09042       0.98910
	             B(2,1,3)      99.10236        0.00082        1.24413     100.34649
	             B(2,1,4)      99.06049        0.00084        1.28981     100.35030
	             B(3,1,4)      99.01270        0.00084        1.35442     100.36713
	           O(2,1,3,4)      75.93244       -0.00142       -2.22440      73.70803
	           O(3,1,2,4)     -75.96280        0.00143        2.26528     -73.69751
	           O(4,1,2,3)      75.98959       -0.00144       -2.29446      73.69513
	-------------------------------------------------------------------------------

	                                 ==> Convergence Check <==                                  
    
	Measures of convergence in internal coordinates in au.
    
	Criteria marked as inactive (o), active & met (*), and active & unmet ( ).

	----------------------------------------------------------------------------------------------
	   Step    Total Energy     Delta E     Max Force     RMS Force      Max Disp      RMS Disp   
	----------------------------------------------------------------------------------------------
	  Convergence Criteria     1.00e-06 *    3.00e-04 *             o    1.20e-03 *             o
	----------------------------------------------------------------------------------------------
	     3     -76.27775974   -2.07e-02      9.77e-02      5.70e-02 o    1.74e-01      1.02e-01 o  ~
	----------------------------------------------------------------------------------------------

Next Geometry in Ang 
	Fragment 1 (Ang)

	    O  -0.0010954694  -0.0000119385   0.0888588167
	    H   0.7581636345  -0.4406806100  -0.3685864184
	    H  -0.7606405952  -0.4356931744  -0.3682237431
	    H   0.0016105521   0.8775359507  -0.3674556018

2026-01-05:16:03:52,681 INFO     [psi4.optking.convcheck:76] Performing convergence check.
2026-01-05:16:03:52,681 INFO     [psi4.optking.convcheck:282] 
	                                 ==> Convergence Check <==                                  
    
	Measures of convergence in internal coordinates in au.
    
	Criteria marked as inactive (o), active & met (*), and active & unmet ( ).

	----------------------------------------------------------------------------------------------
	   Step    Total Energy     Delta E     Max Force     RMS Force      Max Disp      RMS Disp   
	----------------------------------------------------------------------------------------------
	  Convergence Criteria     1.00e-06 *    3.00e-04 *             o    1.20e-03 *             o
	----------------------------------------------------------------------------------------------
	     3     -76.27775974   -2.07e-02      9.77e-02      5.70e-02 o    1.74e-01      1.02e-01 o  ~
	----------------------------------------------------------------------------------------------


2026-01-05:16:03:52,681 INFO     [psi4.optking.stepAlgorithms:296] 	Convergence check returned False

    Structure for next step:
    Molecular point group: c1
    Full point group: C1

    Geometry (in Angstrom), charge = 1, multiplicity = 1:

    O           -0.000128240943    -0.000063483605     0.072643852534
    H            0.759130863002    -0.440732155165    -0.384801382602
    H           -0.759673366730    -0.435744719498    -0.384438707298
    H            0.002577780551     0.877484405547    -0.383670565974


Scratch directory: /tmp/
2026-01-05:16:03:52,698 INFO     [psi4.driver.task_planner:285] PLANNING Atomic:  keywords={'SCF__GUESS': 'READ', 'SCF__INTS_TOLERANCE': 1e-12, 'REFERENCE': 'RHF', 'function_kwargs': {}}
gradient() will perform analytic gradient computation.
2026-01-05:16:03:52,700 INFO     [psi4.driver.driver:636] Compute gradient(): method=hf, basis=6-31g(d,p), molecule=default, nre=13.887645805318085
   => Libint2 <=

    Primary   basis highest AM E, G, H:  6, 6, 3
    Auxiliary basis highest AM E, G, H:  7, 7, 4
    Onebody   basis highest AM E, G, H:  -, -, -
    Solid Harmonics ordering:            Gaussian

*** tstart() called on sugarcube
*** at Mon Jan  5 16:03:52 2026

   => Loading Basis Set <=

    Name: 6-31G(D,P)
    Role: ORBITAL
    Keyword: BASIS
    atoms 1   entry O          line   149 file /opt/tljh/user/envs/pchem2/share/psi4/basis/6-31g_d_p_.gbs 
    atoms 2-4 entry H          line    44 file /opt/tljh/user/envs/pchem2/share/psi4/basis/6-31g_d_p_.gbs 


         ---------------------------------------------------------
                                   SCF
               by Justin Turney, Rob Parrish, Andy Simmonett
                          and Daniel G. A. Smith
                              RHF Reference
                        1 Threads,    500 MiB Core
         ---------------------------------------------------------

  ==> Geometry <==

    Molecular point group: c1
    Full point group: C1

    Geometry (in Angstrom), charge = 1, multiplicity = 1:

       Center              X                  Y                   Z               Mass       
    ------------   -----------------  -----------------  -----------------  -----------------
         O           -0.000128240943    -0.000063483605     0.072643852534    15.994914619570
         H            0.759130863002    -0.440732155165    -0.384801382602     1.007825032230
         H           -0.759673366730    -0.435744719498    -0.384438707298     1.007825032230
         H            0.002577780551     0.877484405547    -0.383670565974     1.007825032230

  Running in c1 symmetry.

  Rotational constants: A =      9.96098  B =      9.94516  C =      7.24889 [cm^-1]
  Rotational constants: A = 298622.59175  B = 298148.28487  C = 217316.26724 [MHz]
  Nuclear repulsion =   13.887645805318085

  Charge       = 1
  Multiplicity = 1
  Electrons    = 10
  Nalpha       = 5
  Nbeta        = 5

  ==> Algorithm <==

  SCF Algorithm Type is DF.
  DIIS enabled.
  MOM disabled.
  Fractional occupation disabled.
  Guess Type is READ.
  Energy threshold   = 1.00e-08
  Density threshold  = 1.00e-08
  Integral threshold = 1.00e-12

  ==> Primary Basis <==

  Basis Set: 6-31G(D,P)
    Blend: 6-31G(D,P)
    Number of shells: 15
    Number of basis functions: 30
    Number of Cartesian functions: 30
    Spherical Harmonics?: false
    Max angular momentum: 2

   => Loading Basis Set <=

    Name: (6-31G(D,P) AUX)
    Role: JKFIT
    Keyword: DF_BASIS_SCF
    atoms 1   entry O          line   221 file /opt/tljh/user/envs/pchem2/share/psi4/basis/cc-pvdz-jkfit.gbs 
    atoms 2-4 entry H          line    51 file /opt/tljh/user/envs/pchem2/share/psi4/basis/cc-pvdz-jkfit.gbs 

   => Loading Basis Set <=

    Name: 6-31G(D,P)
    Role: ORBITAL
    Keyword: BASIS
    atoms 1   entry O          line   149 file /opt/tljh/user/envs/pchem2/share/psi4/basis/6-31g_d_p_.gbs 
    atoms 2-4 entry H          line    44 file /opt/tljh/user/envs/pchem2/share/psi4/basis/6-31g_d_p_.gbs 

  Reading orbitals from file /tmp/pyramidal_h30.default.79410.180.npy, no projection.

  ==> Integral Setup <==

  DFHelper Memory: AOs need 0.001 GiB; user supplied 0.366 GiB. 
  Using in-core AOs.

  ==> MemDFJK: Density-Fitted J/K Matrices <==

    J tasked:                   Yes
    K tasked:                   Yes
    wK tasked:                   No
    OpenMP threads:               1
    Memory [MiB]:               375
    Algorithm:                 Core
    Schwarz Cutoff:           1E-12
    Mask sparsity (%):       0.0000
    Fitting Condition:        1E-10

   => Auxiliary Basis Set <=

  Basis Set: (6-31G(D,P) AUX)
    Blend: CC-PVDZ-JKFIT
    Number of shells: 51
    Number of basis functions: 156
    Number of Cartesian functions: 156
    Spherical Harmonics?: false
    Max angular momentum: 3

  Minimum eigenvalue in the overlap matrix is 1.8290175321E-02.
  Reciprocal condition number of the overlap matrix is 3.3738856807E-03.
    Using symmetric orthogonalization.

  ==> Pre-Iterations <==

  SCF Guess: Orbitals guess was supplied from a previous computation.

   -------------------------------------------------------
    Irrep   Nso     Nmo     Nalpha   Nbeta   Ndocc  Nsocc
   -------------------------------------------------------
     A         30      30       5       5       5       0
   -------------------------------------------------------
    Total      30      30       5       5       5       0
   -------------------------------------------------------

  ==> Iterations <==

                           Total Energy        Delta E     RMS |[F,P]|

   @DF-RHF iter   0:   -76.00916509287092   -7.60092e+01   9.93025e-03 
   @DF-RHF iter   1:   -76.29474817547167   -2.85583e-01   2.73191e-03 DIIS/ADIIS
   @DF-RHF iter   2:   -76.29691807206149   -2.16990e-03   1.57444e-03 DIIS/ADIIS
   @DF-RHF iter   3:   -76.29760708887902   -6.89017e-04   1.07217e-04 DIIS/ADIIS
   @DF-RHF iter   4:   -76.29761435911253   -7.27023e-06   2.52903e-05 DIIS
   @DF-RHF iter   5:   -76.29761483169196   -4.72579e-07   5.16784e-06 DIIS
   @DF-RHF iter   6:   -76.29761486664748   -3.49555e-08   1.20039e-06 DIIS
   @DF-RHF iter   7:   -76.29761486840029   -1.75281e-09   1.21712e-07 DIIS
   @DF-RHF iter   8:   -76.29761486841204   -1.17524e-11   1.54937e-08 DIIS
   @DF-RHF iter   9:   -76.29761486841227   -2.27374e-13   1.32818e-09 DIIS
  Energy and wave function converged.


  ==> Post-Iterations <==

    Orbital Energies [Eh]
    ---------------------

    Doubly Occupied:                                                      

       1A    -21.032290     2A     -1.818222     3A     -1.116067  
       4A     -1.115477     5A     -0.986901  

    Virtual:                                                              

       6A     -0.122037     7A     -0.017367     8A     -0.016772  
       9A      0.600768    10A      0.601150    11A      0.723437  
      12A      0.788750    13A      0.897959    14A      0.898034  
      15A      1.183107    16A      1.288589    17A      1.288662  
      18A      1.769180    19A      2.079799    20A      2.236698  
      21A      2.237739    22A      2.345351    23A      2.347975  
      24A      2.896564    25A      2.897813    26A      2.923104  
      27A      3.165833    28A      3.532810    29A      3.534268  
      30A      3.853997  

    Final Occupation by Irrep:
              A 
    DOCC [     5 ]
    NA   [     5 ]
    NB   [     5 ]

  @DF-RHF Final Energy:   -76.29761486841227

   => Energetics <=

    Nuclear Repulsion Energy =             13.8876458053180851
    One-Electron Energy =                -128.2326076247298943
    Two-Electron Energy =                  38.0473469509995468
    Total Energy =                        -76.2976148684122677

Computation Completed


Properties will be evaluated at   0.000000,   0.000000,   0.000000 [a0]

Properties computed using the SCF density matrix


 Multipole Moments:

 ------------------------------------------------------------------------------------
     Multipole            Electronic (a.u.)      Nuclear  (a.u.)        Total (a.u.)
 ------------------------------------------------------------------------------------

 L = 1.  Multiply by 2.5417464519 to convert [e a0] to [Debye]
 Dipole X            :          0.0004019            0.0019074            0.0023093
 Dipole Y            :          0.0001121            0.0009442            0.0010563
 Dipole Z            :         -0.0427190           -1.0804695           -1.1231885
 Magnitude           :                                                    1.1231914

 ------------------------------------------------------------------------------------

*** tstop() called on sugarcube at Mon Jan  5 16:03:52 2026
Module time:
	user time   =       0.12 seconds =       0.00 minutes
	system time =       0.01 seconds =       0.00 minutes
	total time  =          0 seconds =       0.00 minutes
Total time:
	user time   =      32.63 seconds =       0.54 minutes
	system time =       0.85 seconds =       0.01 minutes
	total time  =         94 seconds =       1.57 minutes

*** tstart() called on sugarcube
*** at Mon Jan  5 16:03:52 2026


         ------------------------------------------------------------
                                   SCF GRAD                          
                          Rob Parrish, Justin Turney,                
                       Andy Simmonett, and Alex Sokolov              
         ------------------------------------------------------------

  ==> Geometry <==

    Molecular point group: c1
    Full point group: C1

    Geometry (in Angstrom), charge = 1, multiplicity = 1:

       Center              X                  Y                   Z               Mass       
    ------------   -----------------  -----------------  -----------------  -----------------
         O           -0.000128240943    -0.000063483605     0.072643852534    15.994914619570
         H            0.759130863002    -0.440732155165    -0.384801382602     1.007825032230
         H           -0.759673366730    -0.435744719498    -0.384438707298     1.007825032230
         H            0.002577780551     0.877484405547    -0.383670565974     1.007825032230

  Nuclear repulsion =   13.887645805318085

  ==> Basis Set <==

  Basis Set: 6-31G(D,P)
    Blend: 6-31G(D,P)
    Number of shells: 15
    Number of basis functions: 30
    Number of Cartesian functions: 30
    Spherical Harmonics?: false
    Max angular momentum: 2

  ==> DFJKGrad: Density-Fitted SCF Gradients <==

    Gradient:                    1
    J tasked:                  Yes
    K tasked:                  Yes
    wK tasked:                  No
    OpenMP threads:              1
    Integrals threads:           1
    Memory [MiB]:              375
    Schwarz Cutoff:          1E-12
    Fitting Condition:       1E-10

   => Auxiliary Basis Set <=

  Basis Set: (6-31G(D,P) AUX)
    Blend: CC-PVDZ-JKFIT
    Number of shells: 51
    Number of basis functions: 156
    Number of Cartesian functions: 156
    Spherical Harmonics?: false
    Max angular momentum: 3


  -Total Gradient:
     Atom            X                  Y                   Z
    ------   -----------------  -----------------  -----------------
       1       -0.001484432652    -0.000245338229     0.078345903828
       2        0.005402197007    -0.003138533457    -0.026492183582
       3       -0.003940469251    -0.002269511099    -0.025679592228
       4        0.000022704896     0.005653382785    -0.026174128018


*** tstop() called on sugarcube at Mon Jan  5 16:03:52 2026
Module time:
	user time   =       0.03 seconds =       0.00 minutes
	system time =       0.00 seconds =       0.00 minutes
	total time  =          0 seconds =       0.00 minutes
Total time:
	user time   =      32.66 seconds =       0.54 minutes
	system time =       0.85 seconds =       0.01 minutes
	total time  =         94 seconds =       1.57 minutes
2026-01-05:16:03:52,858 INFO     [psi4.driver.driver:639] Return gradient(): -76.29761486841227
2026-01-05:16:03:52,858 INFO     [psi4.driver.driver:640] [[-0.00148443 -0.00024534  0.07834590]
 [ 0.00540220 -0.00313853 -0.02649218]
 [-0.00394047 -0.00226951 -0.02567959]
 [ 0.00002270  0.00565338 -0.02617413]]

    			-----------------------------------------

    			 OPTKING 3.0: for geometry optimizations 

    			     By R.A. King, Bethel University     

    			        with contributions from          

    			    A.V. Copan, J. Cayton, A. Heide      

    			-----------------------------------------

    
	                            ===> Fragment 1 <== 

	 Z (Atomic Numbers)          Masses                          Geom                  
	       8.000000            15.994915         -0.00024234 -0.00011997  0.13727699   
	       1.000000             1.007825          1.43454942 -0.83286307 -0.72716923   
	       1.000000             1.007825         -1.43557461 -0.82343818 -0.72648387   
	       1.000000             1.007825          0.00487130  1.65820521 -0.72503229   

	 - Coordinate -           - BOHR/RAD -       - ANG/DEG -
	 R(1,2)           =         1.870656           0.989909
	 R(1,3)           =         1.866578           0.987751
	 R(1,4)           =         1.869130           0.989101
	 B(2,1,3)         =         1.751377         100.346486
	 B(2,1,4)         =         1.751443         100.350302
	 B(3,1,4)         =         1.751737         100.367126
	 O(2,1,3,4)       =         1.286448          73.708033
	 O(3,1,2,4)       =        -1.286264         -73.697514
	 O(4,1,2,3)       =         1.286223          73.695131
2026-01-05:16:03:52,862 INFO     [psi4.optking.history:269] 	Performing BFGS update.
2026-01-05:16:03:52,863 INFO     [psi4.optking.history:280] 	Using 3 previous steps for update.
2026-01-05:16:03:52,864 INFO     [psi4.optking.history:317] 	Steps to be used in Hessian update:  3 2 1

2026-01-05:16:03:52,866 INFO     [psi4.optking.history:418] 	Updated Hessian (in au) 
 	   0.217915   0.004838   0.004578   0.009073   0.009139   0.008928  -0.016598
	   0.016500  -0.016444
	   0.004838   0.221260   0.004955   0.008679   0.008694   0.008428  -0.015913
	   0.015780  -0.015689
	   0.004578   0.004955   0.218930   0.008933   0.008980   0.008750  -0.016356
	   0.016246  -0.016177
	   0.009073   0.008679   0.008933   0.093808  -0.029451  -0.029002  -0.046049
	   0.046541   0.032415
	   0.009139   0.008694   0.008980  -0.029451   0.093538  -0.028555  -0.045568
	  -0.032102  -0.046532
	   0.008928   0.008428   0.008750  -0.029002  -0.028555   0.093073   0.031803
	   0.045387  -0.045860
	  -0.016598  -0.015913  -0.016356  -0.046049  -0.045568   0.031803   0.066644
	  -0.017560   0.017160
	   0.016500   0.015780   0.016246   0.046541  -0.032102   0.045387  -0.017560
	   0.066874  -0.016619
	  -0.016444  -0.015689  -0.016177   0.032415  -0.046532  -0.045860   0.017160
	  -0.016619   0.067217

2026-01-05:16:03:52,868 INFO     [psi4.optking.molsys:944] Projected (PHP) Hessian matrix
	   0.217915   0.004838   0.004578   0.009073   0.009139   0.008928  -0.016598
	   0.016500  -0.016444
	   0.004838   0.221260   0.004955   0.008679   0.008694   0.008428  -0.015913
	   0.015780  -0.015689
	   0.004578   0.004955   0.218930   0.008933   0.008980   0.008750  -0.016356
	   0.016246  -0.016177
	   0.009073   0.008679   0.008933   0.093808  -0.029451  -0.029002  -0.046049
	   0.046541   0.032415
	   0.009139   0.008694   0.008980  -0.029451   0.093538  -0.028555  -0.045568
	  -0.032102  -0.046532
	   0.008928   0.008428   0.008750  -0.029002  -0.028555   0.093073   0.031803
	   0.045387  -0.045860
	  -0.016598  -0.015913  -0.016356  -0.046049  -0.045568   0.031803   0.066644
	  -0.017560   0.017160
	   0.016500   0.015780   0.016246   0.046541  -0.032102   0.045387  -0.017560
	   0.066874  -0.016619
	  -0.016444  -0.015689  -0.016177   0.032415  -0.046532  -0.045860   0.017160
	  -0.016619   0.067217

2026-01-05:16:03:52,868 INFO     [psi4.optking.opt_helper:182] 
	         Geometry (au)                                       Gradient (au)
  -0.0002423403  -0.0001199666   0.1372769860		  -0.0014844327  -0.0002453382   0.0783459038
   1.4345494245  -0.8328630679  -0.7271692258		   0.0054021970  -0.0031385335  -0.0264921836
  -1.4355746079  -0.8234381805  -0.7264838688		  -0.0039404693  -0.0022695111  -0.0256795922
   0.0048712993   1.6582052058  -0.7250322921		   0.0000227049   0.0056533828  -0.0261741280

2026-01-05:16:03:52,869 INFO     [psi4.optking.stepAlgorithms:368] 	Current Step Report 
 
	Current energy:       -76.2976148684
	Energy change for the previous step:
		Actual       :        -0.0198551318
		Projected    :        -0.0260725387

2026-01-05:16:03:52,869 INFO     [psi4.optking.stepAlgorithms:371] 	Energy ratio =    0.76153
2026-01-05:16:03:52,869 INFO     [psi4.optking.stepAlgorithms:929] 	Using RFO solution 1.
2026-01-05:16:03:52,870 INFO     [psi4.optking.displace:100] 	Determining Cartesian step for fragment 1.
2026-01-05:16:03:52,877 INFO     [psi4.optking.displace:415] 	Successfully converged to displaced geometry.
2026-01-05:16:03:52,877 INFO     [psi4.optking.displace:416] 	RMS(dx):  5.367e-09 	Max(dx):  1.184e-08 	RMS(dq):  1.951e-03
2026-01-05:16:03:52,878 INFO     [psi4.optking.displace:172] 

	        --- Internal Coordinate Step in ANG or DEG, aJ/ANG or AJ/DEG ---
	-------------------------------------------------------------------------------
	           Coordinate      Previous         Force          Change          New 
	           ----------      --------        ------          ------        ------
	               R(1,2)       0.98991       -0.14651       -0.05714       0.93277
	               R(1,3)       0.98775       -0.13111       -0.05104       0.93671
	               R(1,4)       0.98910       -0.14081       -0.05494       0.93416
	             B(2,1,3)     100.34649        0.00057        3.78728     104.13377
	             B(2,1,4)     100.35030        0.00056        3.77548     104.12579
	             B(3,1,4)     100.36713        0.00056        3.77588     104.14301
	           O(2,1,3,4)      73.70803       -0.00100       -7.10814      66.59989
	           O(3,1,2,4)     -73.69751        0.00100        7.10764     -66.58987
	           O(4,1,2,3)      73.69513       -0.00100       -7.10062      66.59451
	-------------------------------------------------------------------------------

2026-01-05:16:03:52,879 INFO     [psi4.optking.stepAlgorithms:113] 	|target step| :    0.3015484713
2026-01-05:16:03:52,879 INFO     [psi4.optking.stepAlgorithms:114] 	gradient     :   -0.0384869359
2026-01-05:16:03:52,879 INFO     [psi4.optking.stepAlgorithms:115] 	hessian      :    0.1159405102
2026-01-05:16:03:52,879 INFO     [psi4.optking.stepAlgorithms:113] 	|target step| :    0.3017209686
2026-01-05:16:03:52,879 INFO     [psi4.optking.stepAlgorithms:114] 	gradient     :   -0.0384896069
2026-01-05:16:03:52,879 INFO     [psi4.optking.stepAlgorithms:115] 	hessian      :    0.1159537728
2026-01-05:16:03:52,879 INFO     [psi4.optking.stepAlgorithms:206] 	Norm of achieved step-size    0.3015484713
2026-01-05:16:03:52,879 INFO     [psi4.optking.stepAlgorithms:208] 	Norm of achieved step-size (cart):    0.1439561830
2026-01-05:16:03:52,880 INFO     [psi4.optking.opt_helper:164] Molsys:

	                            ===> Fragment 1 <== 

	 Z (Atomic Numbers)          Masses                          Geom                  
	       8.000000            15.994915          0.00269372  0.00035315  0.03662764   
	       1.000000             1.007825          1.39029522 -0.80557223 -0.69283018   
	       1.000000             1.007825         -1.39613372 -0.80155489 -0.69382363   
	       1.000000             1.007825          0.00674856  1.60855796 -0.69138222   

	 - Coordinate -           - BOHR/RAD -       - ANG/DEG -
	 R(1,2)           =         1.762686           0.932773
	 R(1,3)           =         1.770123           0.936709
	 R(1,4)           =         1.765315           0.934165
	 B(2,1,3)         =         1.817477         104.133766
	 B(2,1,4)         =         1.817338         104.125785
	 B(3,1,4)         =         1.817638         104.143006
	 O(2,1,3,4)       =         1.162387          66.599888
	 O(3,1,2,4)       =        -1.162212         -66.589869
	 O(4,1,2,3)       =         1.162293          66.594510



	        --- Internal Coordinate Step in ANG or DEG, aJ/ANG or AJ/DEG ---
	-------------------------------------------------------------------------------
	           Coordinate      Previous         Force          Change          New 
	           ----------      --------        ------          ------        ------
	               R(1,2)       0.98991       -0.14651       -0.05714       0.93277
	               R(1,3)       0.98775       -0.13111       -0.05104       0.93671
	               R(1,4)       0.98910       -0.14081       -0.05494       0.93416
	             B(2,1,3)     100.34649        0.00057        3.78728     104.13377
	             B(2,1,4)     100.35030        0.00056        3.77548     104.12579
	             B(3,1,4)     100.36713        0.00056        3.77588     104.14301
	           O(2,1,3,4)      73.70803       -0.00100       -7.10814      66.59989
	           O(3,1,2,4)     -73.69751        0.00100        7.10764     -66.58987
	           O(4,1,2,3)      73.69513       -0.00100       -7.10062      66.59451
	-------------------------------------------------------------------------------

	                                 ==> Convergence Check <==                                  
    
	Measures of convergence in internal coordinates in au.
    
	Criteria marked as inactive (o), active & met (*), and active & unmet ( ).

	----------------------------------------------------------------------------------------------
	   Step    Total Energy     Delta E     Max Force     RMS Force      Max Disp      RMS Disp   
	----------------------------------------------------------------------------------------------
	  Convergence Criteria     1.00e-06 *    3.00e-04 *             o    1.20e-03 *             o
	----------------------------------------------------------------------------------------------
	     4     -76.29761487   -1.99e-02      1.78e-02      1.31e-02 o    1.24e-01      1.01e-01 o  ~
	----------------------------------------------------------------------------------------------

Next Geometry in Ang 
	Fragment 1 (Ang)

	    O   0.0014254552   0.0001868791   0.0193825105
	    H   0.7357125474  -0.4262904654  -0.3666299423
	    H  -0.7388021490  -0.4241645834  -0.3671556543
	    H   0.0035711822   0.8512122169  -0.3658637173

2026-01-05:16:03:52,880 INFO     [psi4.optking.convcheck:76] Performing convergence check.
2026-01-05:16:03:52,881 INFO     [psi4.optking.convcheck:282] 
	                                 ==> Convergence Check <==                                  
    
	Measures of convergence in internal coordinates in au.
    
	Criteria marked as inactive (o), active & met (*), and active & unmet ( ).

	----------------------------------------------------------------------------------------------
	   Step    Total Energy     Delta E     Max Force     RMS Force      Max Disp      RMS Disp   
	----------------------------------------------------------------------------------------------
	  Convergence Criteria     1.00e-06 *    3.00e-04 *             o    1.20e-03 *             o
	----------------------------------------------------------------------------------------------
	     4     -76.29761487   -1.99e-02      1.78e-02      1.31e-02 o    1.24e-01      1.01e-01 o  ~
	----------------------------------------------------------------------------------------------


2026-01-05:16:03:52,881 INFO     [psi4.optking.stepAlgorithms:296] 	Convergence check returned False

    Structure for next step:
    Molecular point group: c1
    Full point group: C1

    Geometry (in Angstrom), charge = 1, multiplicity = 1:

    O            0.000201093754    -0.000010414586     0.061354124101
    H            0.734488185965    -0.426487759072    -0.324658328633
    H           -0.740026510439    -0.424361877110    -0.325184040634
    H            0.002346820673     0.851014923222    -0.323892103654


Scratch directory: /tmp/
2026-01-05:16:03:52,898 INFO     [psi4.driver.task_planner:285] PLANNING Atomic:  keywords={'SCF__GUESS': 'READ', 'SCF__INTS_TOLERANCE': 1e-12, 'REFERENCE': 'RHF', 'function_kwargs': {}}
gradient() will perform analytic gradient computation.
2026-01-05:16:03:52,900 INFO     [psi4.driver.driver:636] Compute gradient(): method=hf, basis=6-31g(d,p), molecule=default, nre=14.66662325539467
   => Libint2 <=

    Primary   basis highest AM E, G, H:  6, 6, 3
    Auxiliary basis highest AM E, G, H:  7, 7, 4
    Onebody   basis highest AM E, G, H:  -, -, -
    Solid Harmonics ordering:            Gaussian

*** tstart() called on sugarcube
*** at Mon Jan  5 16:03:52 2026

   => Loading Basis Set <=

    Name: 6-31G(D,P)
    Role: ORBITAL
    Keyword: BASIS
    atoms 1   entry O          line   149 file /opt/tljh/user/envs/pchem2/share/psi4/basis/6-31g_d_p_.gbs 
    atoms 2-4 entry H          line    44 file /opt/tljh/user/envs/pchem2/share/psi4/basis/6-31g_d_p_.gbs 


         ---------------------------------------------------------
                                   SCF
               by Justin Turney, Rob Parrish, Andy Simmonett
                          and Daniel G. A. Smith
                              RHF Reference
                        1 Threads,    500 MiB Core
         ---------------------------------------------------------

  ==> Geometry <==

    Molecular point group: c1
    Full point group: C1

    Geometry (in Angstrom), charge = 1, multiplicity = 1:

       Center              X                  Y                   Z               Mass       
    ------------   -----------------  -----------------  -----------------  -----------------
         O            0.000201093754    -0.000010414586     0.061354124101    15.994914619570
         H            0.734488185965    -0.426487759072    -0.324658328633     1.007825032230
         H           -0.740026510439    -0.424361877110    -0.325184040634     1.007825032230
         H            0.002346820673     0.851014923222    -0.323892103654     1.007825032230

  Running in c1 symmetry.

  Rotational constants: A =     11.45959  B =     11.41539  C =      7.69639 [cm^-1]
  Rotational constants: A = 343549.85176  B = 342224.92061  C = 230731.85663 [MHz]
  Nuclear repulsion =   14.666623255394670

  Charge       = 1
  Multiplicity = 1
  Electrons    = 10
  Nalpha       = 5
  Nbeta        = 5

  ==> Algorithm <==

  SCF Algorithm Type is DF.
  DIIS enabled.
  MOM disabled.
  Fractional occupation disabled.
  Guess Type is READ.
  Energy threshold   = 1.00e-08
  Density threshold  = 1.00e-08
  Integral threshold = 1.00e-12

  ==> Primary Basis <==

  Basis Set: 6-31G(D,P)
    Blend: 6-31G(D,P)
    Number of shells: 15
    Number of basis functions: 30
    Number of Cartesian functions: 30
    Spherical Harmonics?: false
    Max angular momentum: 2

   => Loading Basis Set <=

    Name: (6-31G(D,P) AUX)
    Role: JKFIT
    Keyword: DF_BASIS_SCF
    atoms 1   entry O          line   221 file /opt/tljh/user/envs/pchem2/share/psi4/basis/cc-pvdz-jkfit.gbs 
    atoms 2-4 entry H          line    51 file /opt/tljh/user/envs/pchem2/share/psi4/basis/cc-pvdz-jkfit.gbs 

   => Loading Basis Set <=

    Name: 6-31G(D,P)
    Role: ORBITAL
    Keyword: BASIS
    atoms 1   entry O          line   149 file /opt/tljh/user/envs/pchem2/share/psi4/basis/6-31g_d_p_.gbs 
    atoms 2-4 entry H          line    44 file /opt/tljh/user/envs/pchem2/share/psi4/basis/6-31g_d_p_.gbs 

  Reading orbitals from file /tmp/pyramidal_h30.default.79410.180.npy, no projection.

  ==> Integral Setup <==

  DFHelper Memory: AOs need 0.001 GiB; user supplied 0.366 GiB. 
  Using in-core AOs.

  ==> MemDFJK: Density-Fitted J/K Matrices <==

    J tasked:                   Yes
    K tasked:                   Yes
    wK tasked:                   No
    OpenMP threads:               1
    Memory [MiB]:               375
    Algorithm:                 Core
    Schwarz Cutoff:           1E-12
    Mask sparsity (%):       0.0000
    Fitting Condition:        1E-10

   => Auxiliary Basis Set <=

  Basis Set: (6-31G(D,P) AUX)
    Blend: CC-PVDZ-JKFIT
    Number of shells: 51
    Number of basis functions: 156
    Number of Cartesian functions: 156
    Spherical Harmonics?: false
    Max angular momentum: 3

  Minimum eigenvalue in the overlap matrix is 1.6945622862E-02.
  Reciprocal condition number of the overlap matrix is 3.0359306115E-03.
    Using symmetric orthogonalization.

  ==> Pre-Iterations <==

  SCF Guess: Orbitals guess was supplied from a previous computation.

   -------------------------------------------------------
    Irrep   Nso     Nmo     Nalpha   Nbeta   Ndocc  Nsocc
   -------------------------------------------------------
     A         30      30       5       5       5       0
   -------------------------------------------------------
    Total      30      30       5       5       5       0
   -------------------------------------------------------

  ==> Iterations <==

                           Total Energy        Delta E     RMS |[F,P]|

   @DF-RHF iter   0:   -76.45366538081532   -7.64537e+01   5.58103e-03 
   @DF-RHF iter   1:   -76.29966201423362    1.54003e-01   1.23222e-03 DIIS/ADIIS
   @DF-RHF iter   2:   -76.30025677704177   -5.94763e-04   6.72094e-04 DIIS/ADIIS
   @DF-RHF iter   3:   -76.30038196377012   -1.25187e-04   9.81474e-05 DIIS
   @DF-RHF iter   4:   -76.30039100895000   -9.04518e-06   2.34699e-05 DIIS
   @DF-RHF iter   5:   -76.30039168024088   -6.71291e-07   5.13523e-06 DIIS
   @DF-RHF iter   6:   -76.30039171061802   -3.03771e-08   6.22912e-07 DIIS
   @DF-RHF iter   7:   -76.30039171091427   -2.96254e-10   7.32742e-08 DIIS
   @DF-RHF iter   8:   -76.30039171091806   -3.79430e-12   9.17819e-09 DIIS
  Energy and wave function converged.


  ==> Post-Iterations <==

    Orbital Energies [Eh]
    ---------------------

    Doubly Occupied:                                                      

       1A    -21.029756     2A     -1.856265     3A     -1.161580  
       4A     -1.160491     5A     -0.994377  

    Virtual:                                                              

       6A     -0.107268     7A      0.001829     8A      0.002827  
       9A      0.617990    10A      0.618686    11A      0.727627  
      12A      0.814581    13A      0.895842    14A      0.896269  
      15A      1.156432    16A      1.292792    17A      1.293005  
      18A      1.854782    19A      2.102195    20A      2.312335  
      21A      2.314008    22A      2.430867    23A      2.435891  
      24A      2.921635    25A      3.043714    26A      3.046218  
      27A      3.310376    28A      3.567366    29A      3.571791  
      30A      3.946902  

    Final Occupation by Irrep:
              A 
    DOCC [     5 ]
    NA   [     5 ]
    NB   [     5 ]

  @DF-RHF Final Energy:   -76.30039171091806

   => Energetics <=

    Nuclear Repulsion Energy =             14.6666232553946703
    One-Electron Energy =                -129.5290936153064365
    Two-Electron Energy =                  38.5620786489937117
    Total Energy =                        -76.3003917109180634

Computation Completed


Properties will be evaluated at   0.000000,   0.000000,   0.000000 [a0]

Properties computed using the SCF density matrix


 Multipole Moments:

 ------------------------------------------------------------------------------------
     Multipole            Electronic (a.u.)      Nuclear  (a.u.)        Total (a.u.)
 ------------------------------------------------------------------------------------

 L = 1.  Multiply by 2.5417464519 to convert [e a0] to [Debye]
 Dipole X            :         -0.0008061           -0.0029910           -0.0037971
 Dipole Y            :         -0.0000976            0.0001549            0.0000573
 Dipole Z            :         -0.0456029           -0.9125515           -0.9581545
 Magnitude           :                                                    0.9581620

 ------------------------------------------------------------------------------------

*** tstop() called on sugarcube at Mon Jan  5 16:03:53 2026
Module time:
	user time   =       0.11 seconds =       0.00 minutes
	system time =       0.00 seconds =       0.00 minutes
	total time  =          1 seconds =       0.02 minutes
Total time:
	user time   =      32.82 seconds =       0.55 minutes
	system time =       0.85 seconds =       0.01 minutes
	total time  =         95 seconds =       1.58 minutes

*** tstart() called on sugarcube
*** at Mon Jan  5 16:03:53 2026


         ------------------------------------------------------------
                                   SCF GRAD                          
                          Rob Parrish, Justin Turney,                
                       Andy Simmonett, and Alex Sokolov              
         ------------------------------------------------------------

  ==> Geometry <==

    Molecular point group: c1
    Full point group: C1

    Geometry (in Angstrom), charge = 1, multiplicity = 1:

       Center              X                  Y                   Z               Mass       
    ------------   -----------------  -----------------  -----------------  -----------------
         O            0.000201093754    -0.000010414586     0.061354124101    15.994914619570
         H            0.734488185965    -0.426487759072    -0.324658328633     1.007825032230
         H           -0.740026510439    -0.424361877110    -0.325184040634     1.007825032230
         H            0.002346820673     0.851014923222    -0.323892103654     1.007825032230

  Nuclear repulsion =   14.666623255394670

  ==> Basis Set <==

  Basis Set: 6-31G(D,P)
    Blend: 6-31G(D,P)
    Number of shells: 15
    Number of basis functions: 30
    Number of Cartesian functions: 30
    Spherical Harmonics?: false
    Max angular momentum: 2

  ==> DFJKGrad: Density-Fitted SCF Gradients <==

    Gradient:                    1
    J tasked:                  Yes
    K tasked:                  Yes
    wK tasked:                  No
    OpenMP threads:              1
    Integrals threads:           1
    Memory [MiB]:              375
    Schwarz Cutoff:          1E-12
    Fitting Condition:       1E-10

   => Auxiliary Basis Set <=

  Basis Set: (6-31G(D,P) AUX)
    Blend: CC-PVDZ-JKFIT
    Number of shells: 51
    Number of basis functions: 156
    Number of Cartesian functions: 156
    Spherical Harmonics?: false
    Max angular momentum: 3


  -Total Gradient:
     Atom            X                  Y                   Z
    ------   -----------------  -----------------  -----------------
       1        0.003863384587     0.000633980313    -0.001162314967
       2       -0.038670568676     0.022521685141     0.001307217462
       3        0.034845176186     0.019955605374    -0.000691571849
       4       -0.000037992097    -0.043111270828     0.000546669354


*** tstop() called on sugarcube at Mon Jan  5 16:03:53 2026
Module time:
	user time   =       0.02 seconds =       0.00 minutes
	system time =       0.00 seconds =       0.00 minutes
	total time  =          0 seconds =       0.00 minutes
Total time:
	user time   =      32.85 seconds =       0.55 minutes
	system time =       0.85 seconds =       0.01 minutes
	total time  =         95 seconds =       1.58 minutes
2026-01-05:16:03:53,56 INFO     [psi4.driver.driver:639] Return gradient(): -76.30039171091806
2026-01-05:16:03:53,57 INFO     [psi4.driver.driver:640] [[ 0.00386338  0.00063398 -0.00116231]
 [-0.03867057  0.02252169  0.00130722]
 [ 0.03484518  0.01995561 -0.00069157]
 [-0.00003799 -0.04311127  0.00054667]]

    			-----------------------------------------

    			 OPTKING 3.0: for geometry optimizations 

    			     By R.A. King, Bethel University     

    			        with contributions from          

    			    A.V. Copan, J. Cayton, A. Heide      

    			-----------------------------------------

    
	                            ===> Fragment 1 <== 

	 Z (Atomic Numbers)          Masses                          Geom                  
	       8.000000            15.994915          0.00038001 -0.00001968  0.11594249   
	       1.000000             1.007825          1.38798151 -0.80594506 -0.61351533   
	       1.000000             1.007825         -1.39844743 -0.80192773 -0.61450878   
	       1.000000             1.007825          0.00443485  1.60818513 -0.61206737   

	 - Coordinate -           - BOHR/RAD -       - ANG/DEG -
	 R(1,2)           =         1.762686           0.932773
	 R(1,3)           =         1.770123           0.936709
	 R(1,4)           =         1.765315           0.934165
	 B(2,1,3)         =         1.817477         104.133766
	 B(2,1,4)         =         1.817338         104.125785
	 B(3,1,4)         =         1.817638         104.143006
	 O(2,1,3,4)       =         1.162387          66.599888
	 O(3,1,2,4)       =        -1.162212         -66.589869
	 O(4,1,2,3)       =         1.162293          66.594510
2026-01-05:16:03:53,61 INFO     [psi4.optking.history:269] 	Performing BFGS update.
2026-01-05:16:03:53,61 INFO     [psi4.optking.history:280] 	Using 4 previous steps for update.
2026-01-05:16:03:53,64 WARNING  [psi4.optking.history:301] 	Change in internal coordinate of 6.00e-01 exceeds limit of 5.00e-01.
2026-01-05:16:03:53,64 WARNING  [psi4.optking.history:306] 	Skipping Hessian update for step 1.
2026-01-05:16:03:53,64 INFO     [psi4.optking.history:317] 	Steps to be used in Hessian update:  4 3 2

2026-01-05:16:03:53,66 INFO     [psi4.optking.history:418] 	Updated Hessian (in au) 
 	   0.283723   0.067356   0.069138   0.002825   0.002825   0.002569  -0.006639
	   0.006465  -0.006399
	   0.067356   0.282516   0.066911   0.004427   0.004394   0.004189  -0.008705
	   0.008562  -0.008482
	   0.069138   0.066911   0.282476   0.003363   0.003350   0.003110  -0.007332
	   0.007167  -0.007096
	   0.002825   0.004427   0.003363   0.087797  -0.037372  -0.036656  -0.032828
	   0.033213   0.044917
	   0.002825   0.004394   0.003350  -0.037372   0.087185  -0.036112  -0.032433
	  -0.044624  -0.033151
	   0.002569   0.004189   0.003110  -0.036656  -0.036112   0.086559   0.044234
	   0.032490  -0.032823
	  -0.006639  -0.008705  -0.007332  -0.032828  -0.032433   0.044234   0.042817
	   0.005137  -0.005366
	   0.006465   0.008562   0.007167   0.033213  -0.044624   0.032490   0.005137
	   0.043053   0.005536
	  -0.006399  -0.008482  -0.007096   0.044917  -0.033151  -0.032823  -0.005366
	   0.005536   0.043209

2026-01-05:16:03:53,68 INFO     [psi4.optking.molsys:944] Projected (PHP) Hessian matrix
	   0.283723   0.067356   0.069138   0.002825   0.002825   0.002569  -0.006639
	   0.006465  -0.006399
	   0.067356   0.282516   0.066911   0.004427   0.004394   0.004189  -0.008705
	   0.008562  -0.008482
	   0.069138   0.066911   0.282476   0.003363   0.003350   0.003110  -0.007332
	   0.007167  -0.007096
	   0.002825   0.004427   0.003363   0.087797  -0.037372  -0.036656  -0.032828
	   0.033213   0.044917
	   0.002825   0.004394   0.003350  -0.037372   0.087185  -0.036112  -0.032433
	  -0.044624  -0.033151
	   0.002569   0.004189   0.003110  -0.036656  -0.036112   0.086559   0.044234
	   0.032490  -0.032823
	  -0.006639  -0.008705  -0.007332  -0.032828  -0.032433   0.044234   0.042817
	   0.005137  -0.005366
	   0.006465   0.008562   0.007167   0.033213  -0.044624   0.032490   0.005137
	   0.043053   0.005536
	  -0.006399  -0.008482  -0.007096   0.044917  -0.033151  -0.032823  -0.005366
	   0.005536   0.043209

2026-01-05:16:03:53,68 INFO     [psi4.optking.opt_helper:182] 
	         Geometry (au)                                       Gradient (au)
   0.0003800121  -0.0000196807   0.1159424912		   0.0038633846   0.0006339803  -0.0011623150
   1.3879815139  -0.8059450605  -0.6135153255		  -0.0386705687   0.0225216851   0.0013072175
  -1.3984474303  -0.8019277258  -0.6145087772		   0.0348451762   0.0199556054  -0.0006915718
   0.0044348483   1.6081851336  -0.6120673701		  -0.0000379921  -0.0431112708   0.0005466694

2026-01-05:16:03:53,69 INFO     [psi4.optking.stepAlgorithms:368] 	Current Step Report 
 
	Current energy:       -76.3003917109
	Energy change for the previous step:
		Actual       :        -0.0027768425
		Projected    :        -0.0058065607

2026-01-05:16:03:53,69 INFO     [psi4.optking.stepAlgorithms:371] 	Energy ratio =    0.47822
2026-01-05:16:03:53,69 INFO     [psi4.optking.stepAlgorithms:929] 	Using RFO solution 1.
2026-01-05:16:03:53,70 INFO     [psi4.optking.displace:100] 	Determining Cartesian step for fragment 1.
2026-01-05:16:03:53,77 INFO     [psi4.optking.displace:415] 	Successfully converged to displaced geometry.
2026-01-05:16:03:53,77 INFO     [psi4.optking.displace:416] 	RMS(dx):  7.619e-09 	Max(dx):  1.782e-08 	RMS(dq):  2.722e-03
2026-01-05:16:03:53,79 INFO     [psi4.optking.displace:172] 

	        --- Internal Coordinate Step in ANG or DEG, aJ/ANG or AJ/DEG ---
	-------------------------------------------------------------------------------
	           Coordinate      Previous         Force          Change          New 
	           ----------      --------        ------          ------        ------
	               R(1,2)       0.93277        0.34009        0.04889       0.98167
	               R(1,3)       0.93671        0.29899        0.03525       0.97196
	               R(1,4)       0.93416        0.32543        0.04414       0.97830
	             B(2,1,3)     104.13377        0.00040        3.87724     108.01101
	             B(2,1,4)     104.12579        0.00041        3.91398     108.03976
	             B(3,1,4)     104.14301        0.00040        3.88215     108.02516
	           O(2,1,3,4)      66.59989       -0.00080       -8.37639      58.22350
	           O(3,1,2,4)     -66.58987        0.00080        8.35869     -58.23118
	           O(4,1,2,3)      66.59451       -0.00080       -8.37844      58.21607
	-------------------------------------------------------------------------------

2026-01-05:16:03:53,79 INFO     [psi4.optking.stepAlgorithms:113] 	|target step| :    0.3127425179
2026-01-05:16:03:53,79 INFO     [psi4.optking.stepAlgorithms:114] 	gradient     :   -0.0485953970
2026-01-05:16:03:53,79 INFO     [psi4.optking.stepAlgorithms:115] 	hessian      :    0.1400875107
2026-01-05:16:03:53,79 INFO     [psi4.optking.stepAlgorithms:113] 	|target step| :    0.3130655937
2026-01-05:16:03:53,79 INFO     [psi4.optking.stepAlgorithms:114] 	gradient     :   -0.0485764967
2026-01-05:16:03:53,79 INFO     [psi4.optking.stepAlgorithms:115] 	hessian      :    0.1399563284
2026-01-05:16:03:53,79 INFO     [psi4.optking.stepAlgorithms:206] 	Norm of achieved step-size    0.3127425179
2026-01-05:16:03:53,79 INFO     [psi4.optking.stepAlgorithms:208] 	Norm of achieved step-size (cart):    0.2125085099
2026-01-05:16:03:53,80 INFO     [psi4.optking.opt_helper:164] Molsys:

	                            ===> Fragment 1 <== 

	 Z (Atomic Numbers)          Masses                          Geom                  
	       8.000000            15.994915         -0.00578755 -0.00096237  0.06265916   
	       1.000000             1.007825          1.49367400 -0.87131024 -0.59721213   
	       1.000000             1.007825         -1.49324820 -0.85444514 -0.59508866   
	       1.000000             1.007825         -0.00028931  1.72701041 -0.59450735   

	 - Coordinate -           - BOHR/RAD -       - ANG/DEG -
	 R(1,2)           =         1.855080           0.981666
	 R(1,3)           =         1.836737           0.971960
	 R(1,4)           =         1.848726           0.978304
	 B(2,1,3)         =         1.885148         108.011005
	 B(2,1,4)         =         1.885650         108.039764
	 B(3,1,4)         =         1.885395         108.025159
	 O(2,1,3,4)       =         1.016192          58.223501
	 O(3,1,2,4)       =        -1.016326         -58.231178
	 O(4,1,2,3)       =         1.016062          58.216071



	        --- Internal Coordinate Step in ANG or DEG, aJ/ANG or AJ/DEG ---
	-------------------------------------------------------------------------------
	           Coordinate      Previous         Force          Change          New 
	           ----------      --------        ------          ------        ------
	               R(1,2)       0.93277        0.34009        0.04889       0.98167
	               R(1,3)       0.93671        0.29899        0.03525       0.97196
	               R(1,4)       0.93416        0.32543        0.04414       0.97830
	             B(2,1,3)     104.13377        0.00040        3.87724     108.01101
	             B(2,1,4)     104.12579        0.00041        3.91398     108.03976
	             B(3,1,4)     104.14301        0.00040        3.88215     108.02516
	           O(2,1,3,4)      66.59989       -0.00080       -8.37639      58.22350
	           O(3,1,2,4)     -66.58987        0.00080        8.35869     -58.23118
	           O(4,1,2,3)      66.59451       -0.00080       -8.37844      58.21607
	-------------------------------------------------------------------------------

	                                 ==> Convergence Check <==                                  
    
	Measures of convergence in internal coordinates in au.
    
	Criteria marked as inactive (o), active & met (*), and active & unmet ( ).

	----------------------------------------------------------------------------------------------
	   Step    Total Energy     Delta E     Max Force     RMS Force      Max Disp      RMS Disp   
	----------------------------------------------------------------------------------------------
	  Convergence Criteria     1.00e-06 *    3.00e-04 *             o    1.20e-03 *             o
	----------------------------------------------------------------------------------------------
	     5     -76.30039171   -2.78e-03      4.13e-02      2.36e-02 o    1.46e-01      1.04e-01 o  ~
	----------------------------------------------------------------------------------------------

Next Geometry in Ang 
	Fragment 1 (Ang)

	    O  -0.0030626401  -0.0005092625   0.0331578017
	    H   0.7904182416  -0.4610775201  -0.3160310498
	    H  -0.7901929151  -0.4521528981  -0.3149073579
	    H  -0.0001530964   0.9138945532  -0.3145997428

2026-01-05:16:03:53,81 INFO     [psi4.optking.convcheck:76] Performing convergence check.
2026-01-05:16:03:53,81 INFO     [psi4.optking.convcheck:282] 
	                                 ==> Convergence Check <==                                  
    
	Measures of convergence in internal coordinates in au.
    
	Criteria marked as inactive (o), active & met (*), and active & unmet ( ).

	----------------------------------------------------------------------------------------------
	   Step    Total Energy     Delta E     Max Force     RMS Force      Max Disp      RMS Disp   
	----------------------------------------------------------------------------------------------
	  Convergence Criteria     1.00e-06 *    3.00e-04 *             o    1.20e-03 *             o
	----------------------------------------------------------------------------------------------
	     5     -76.30039171   -2.78e-03      4.13e-02      2.36e-02 o    1.46e-01      1.04e-01 o  ~
	----------------------------------------------------------------------------------------------


2026-01-05:16:03:53,81 INFO     [psi4.optking.stepAlgorithms:296] 	Convergence check returned False

    Structure for next step:
    Molecular point group: c1
    Full point group: C1

    Geometry (in Angstrom), charge = 1, multiplicity = 1:

    O           -0.000490715118    -0.000116154650     0.055377391059
    H            0.792990166601    -0.460684412200    -0.293811460452
    H           -0.787620990150    -0.451759790276    -0.292687768535
    H            0.002418828579     0.914287661063    -0.292380153369


Scratch directory: /tmp/
2026-01-05:16:03:53,99 INFO     [psi4.driver.task_planner:285] PLANNING Atomic:  keywords={'SCF__GUESS': 'READ', 'SCF__INTS_TOLERANCE': 1e-12, 'REFERENCE': 'RHF', 'function_kwargs': {}}
gradient() will perform analytic gradient computation.
2026-01-05:16:03:53,101 INFO     [psi4.driver.driver:636] Compute gradient(): method=hf, basis=6-31g(d,p), molecule=default, nre=13.999104552238855
   => Libint2 <=

    Primary   basis highest AM E, G, H:  6, 6, 3
    Auxiliary basis highest AM E, G, H:  7, 7, 4
    Onebody   basis highest AM E, G, H:  -, -, -
    Solid Harmonics ordering:            Gaussian

*** tstart() called on sugarcube
*** at Mon Jan  5 16:03:53 2026

   => Loading Basis Set <=

    Name: 6-31G(D,P)
    Role: ORBITAL
    Keyword: BASIS
    atoms 1   entry O          line   149 file /opt/tljh/user/envs/pchem2/share/psi4/basis/6-31g_d_p_.gbs 
    atoms 2-4 entry H          line    44 file /opt/tljh/user/envs/pchem2/share/psi4/basis/6-31g_d_p_.gbs 


         ---------------------------------------------------------
                                   SCF
               by Justin Turney, Rob Parrish, Andy Simmonett
                          and Daniel G. A. Smith
                              RHF Reference
                        1 Threads,    500 MiB Core
         ---------------------------------------------------------

  ==> Geometry <==

    Molecular point group: c1
    Full point group: C1

    Geometry (in Angstrom), charge = 1, multiplicity = 1:

       Center              X                  Y                   Z               Mass       
    ------------   -----------------  -----------------  -----------------  -----------------
         O           -0.000490715118    -0.000116154650     0.055377391059    15.994914619570
         H            0.792990166601    -0.460684412200    -0.293811460452     1.007825032230
         H           -0.787620990150    -0.451759790276    -0.292687768535     1.007825032230
         H            0.002418828579     0.914287661063    -0.292380153369     1.007825032230

  Running in c1 symmetry.

  Rotational constants: A =     10.79557  B =     10.69278  C =      6.68684 [cm^-1]
  Rotational constants: A = 323643.03391  B = 320561.50559  C = 200466.34574 [MHz]
  Nuclear repulsion =   13.999104552238855

  Charge       = 1
  Multiplicity = 1
  Electrons    = 10
  Nalpha       = 5
  Nbeta        = 5

  ==> Algorithm <==

  SCF Algorithm Type is DF.
  DIIS enabled.
  MOM disabled.
  Fractional occupation disabled.
  Guess Type is READ.
  Energy threshold   = 1.00e-08
  Density threshold  = 1.00e-08
  Integral threshold = 1.00e-12

  ==> Primary Basis <==

  Basis Set: 6-31G(D,P)
    Blend: 6-31G(D,P)
    Number of shells: 15
    Number of basis functions: 30
    Number of Cartesian functions: 30
    Spherical Harmonics?: false
    Max angular momentum: 2

   => Loading Basis Set <=

    Name: (6-31G(D,P) AUX)
    Role: JKFIT
    Keyword: DF_BASIS_SCF
    atoms 1   entry O          line   221 file /opt/tljh/user/envs/pchem2/share/psi4/basis/cc-pvdz-jkfit.gbs 
    atoms 2-4 entry H          line    51 file /opt/tljh/user/envs/pchem2/share/psi4/basis/cc-pvdz-jkfit.gbs 

   => Loading Basis Set <=

    Name: 6-31G(D,P)
    Role: ORBITAL
    Keyword: BASIS
    atoms 1   entry O          line   149 file /opt/tljh/user/envs/pchem2/share/psi4/basis/6-31g_d_p_.gbs 
    atoms 2-4 entry H          line    44 file /opt/tljh/user/envs/pchem2/share/psi4/basis/6-31g_d_p_.gbs 

  Reading orbitals from file /tmp/pyramidal_h30.default.79410.180.npy, no projection.

  ==> Integral Setup <==

  DFHelper Memory: AOs need 0.001 GiB; user supplied 0.366 GiB. 
  Using in-core AOs.

  ==> MemDFJK: Density-Fitted J/K Matrices <==

    J tasked:                   Yes
    K tasked:                   Yes
    wK tasked:                   No
    OpenMP threads:               1
    Memory [MiB]:               375
    Algorithm:                 Core
    Schwarz Cutoff:           1E-12
    Mask sparsity (%):       0.0000
    Fitting Condition:        1E-10

   => Auxiliary Basis Set <=

  Basis Set: (6-31G(D,P) AUX)
    Blend: CC-PVDZ-JKFIT
    Number of shells: 51
    Number of basis functions: 156
    Number of Cartesian functions: 156
    Spherical Harmonics?: false
    Max angular momentum: 3

  Minimum eigenvalue in the overlap matrix is 1.8389292409E-02.
  Reciprocal condition number of the overlap matrix is 3.4088486563E-03.
    Using symmetric orthogonalization.

  ==> Pre-Iterations <==

  SCF Guess: Orbitals guess was supplied from a previous computation.

   -------------------------------------------------------
    Irrep   Nso     Nmo     Nalpha   Nbeta   Ndocc  Nsocc
   -------------------------------------------------------
     A         30      30       5       5       5       0
   -------------------------------------------------------
    Total      30      30       5       5       5       0
   -------------------------------------------------------

  ==> Iterations <==

                           Total Energy        Delta E     RMS |[F,P]|

   @DF-RHF iter   0:   -76.17338773486676   -7.61734e+01   4.58874e-03 
   @DF-RHF iter   1:   -76.30657685916459   -1.33189e-01   1.49248e-03 DIIS/ADIIS
   @DF-RHF iter   2:   -76.30718836011630   -6.11501e-04   8.04702e-04 DIIS/ADIIS
   @DF-RHF iter   3:   -76.30737270663941   -1.84347e-04   6.26203e-05 DIIS
   @DF-RHF iter   4:   -76.30737562484885   -2.91821e-06   1.68190e-05 DIIS
   @DF-RHF iter   5:   -76.30737590142056   -2.76572e-07   4.42547e-06 DIIS
   @DF-RHF iter   6:   -76.30737592377847   -2.23579e-08   5.51468e-07 DIIS
   @DF-RHF iter   7:   -76.30737592413547   -3.57005e-10   3.80434e-08 DIIS
   @DF-RHF iter   8:   -76.30737592413642   -9.52127e-13   3.79121e-09 DIIS
  Energy and wave function converged.


  ==> Post-Iterations <==

    Orbital Energies [Eh]
    ---------------------

    Doubly Occupied:                                                      

       1A    -21.021563     2A     -1.810870     3A     -1.132679  
       4A     -1.130020     5A     -0.965924  

    Virtual:                                                              

       6A     -0.114395     7A     -0.007563     8A     -0.004977  
       9A      0.622522    10A      0.624135    11A      0.726801  
      12A      0.769966    13A      0.896389    14A      0.896746  
      15A      1.125580    16A      1.314496    17A      1.315018  
      18A      1.867730    19A      2.029581    20A      2.252354  
      21A      2.258944    22A      2.376048    23A      2.385542  
      24A      2.759647    25A      2.998247    26A      3.005481  
      27A      3.229210    28A      3.477618    29A      3.485974  
      30A      3.941964  

    Final Occupation by Irrep:
              A 
    DOCC [     5 ]
    NA   [     5 ]
    NB   [     5 ]

  @DF-RHF Final Energy:   -76.30737592413642

   => Energetics <=

    Nuclear Repulsion Energy =             13.9991045522388546
    One-Electron Energy =                -128.4908516918521002
    Two-Electron Energy =                  38.1843712154768156
    Total Energy =                        -76.3073759241364229

Computation Completed


Properties will be evaluated at   0.000000,   0.000000,   0.000000 [a0]

Properties computed using the SCF density matrix


 Multipole Moments:

 ------------------------------------------------------------------------------------
     Multipole            Electronic (a.u.)      Nuclear  (a.u.)        Total (a.u.)
 ------------------------------------------------------------------------------------

 L = 1.  Multiply by 2.5417464519 to convert [e a0] to [Debye]
 Dipole X            :          0.0025693            0.0072987            0.0098680
 Dipole Y            :          0.0005089            0.0017276            0.0022365
 Dipole Z            :         -0.0587172           -0.8236565           -0.8823737
 Magnitude           :                                                    0.8824317

 ------------------------------------------------------------------------------------

*** tstop() called on sugarcube at Mon Jan  5 16:03:53 2026
Module time:
	user time   =       0.12 seconds =       0.00 minutes
	system time =       0.00 seconds =       0.00 minutes
	total time  =          0 seconds =       0.00 minutes
Total time:
	user time   =      33.02 seconds =       0.55 minutes
	system time =       0.85 seconds =       0.01 minutes
	total time  =         95 seconds =       1.58 minutes

*** tstart() called on sugarcube
*** at Mon Jan  5 16:03:53 2026


         ------------------------------------------------------------
                                   SCF GRAD                          
                          Rob Parrish, Justin Turney,                
                       Andy Simmonett, and Alex Sokolov              
         ------------------------------------------------------------

  ==> Geometry <==

    Molecular point group: c1
    Full point group: C1

    Geometry (in Angstrom), charge = 1, multiplicity = 1:

       Center              X                  Y                   Z               Mass       
    ------------   -----------------  -----------------  -----------------  -----------------
         O           -0.000490715118    -0.000116154650     0.055377391059    15.994914619570
         H            0.792990166601    -0.460684412200    -0.293811460452     1.007825032230
         H           -0.787620990150    -0.451759790276    -0.292687768535     1.007825032230
         H            0.002418828579     0.914287661063    -0.292380153369     1.007825032230

  Nuclear repulsion =   13.999104552238855

  ==> Basis Set <==

  Basis Set: 6-31G(D,P)
    Blend: 6-31G(D,P)
    Number of shells: 15
    Number of basis functions: 30
    Number of Cartesian functions: 30
    Spherical Harmonics?: false
    Max angular momentum: 2

  ==> DFJKGrad: Density-Fitted SCF Gradients <==

    Gradient:                    1
    J tasked:                  Yes
    K tasked:                  Yes
    wK tasked:                  No
    OpenMP threads:              1
    Integrals threads:           1
    Memory [MiB]:              375
    Schwarz Cutoff:          1E-12
    Fitting Condition:       1E-10

   => Auxiliary Basis Set <=

  Basis Set: (6-31G(D,P) AUX)
    Blend: CC-PVDZ-JKFIT
    Number of shells: 51
    Number of basis functions: 156
    Number of Cartesian functions: 156
    Spherical Harmonics?: false
    Max angular momentum: 3


  -Total Gradient:
     Atom            X                  Y                   Z
    ------   -----------------  -----------------  -----------------
       1       -0.007380081796    -0.001344462247     0.034002761225
       2        0.010418826080    -0.006137486384    -0.012737270931
       3       -0.002977975023    -0.001694907353    -0.009604806988
       4       -0.000060769261     0.009176855985    -0.011660683305


*** tstop() called on sugarcube at Mon Jan  5 16:03:53 2026
Module time:
	user time   =       0.03 seconds =       0.00 minutes
	system time =       0.00 seconds =       0.00 minutes
	total time  =          0 seconds =       0.00 minutes
Total time:
	user time   =      33.05 seconds =       0.55 minutes
	system time =       0.85 seconds =       0.01 minutes
	total time  =         95 seconds =       1.58 minutes
2026-01-05:16:03:53,256 INFO     [psi4.driver.driver:639] Return gradient(): -76.30737592413642
2026-01-05:16:03:53,256 INFO     [psi4.driver.driver:640] [[-0.00738008 -0.00134446  0.03400276]
 [ 0.01041883 -0.00613749 -0.01273727]
 [-0.00297798 -0.00169491 -0.00960481]
 [-0.00006077  0.00917686 -0.01166068]]

    			-----------------------------------------

    			 OPTKING 3.0: for geometry optimizations 

    			     By R.A. King, Bethel University     

    			        with contributions from          

    			    A.V. Copan, J. Cayton, A. Heide      

    			-----------------------------------------

    
	                            ===> Fragment 1 <== 

	 Z (Atomic Numbers)          Masses                          Geom                  
	       8.000000            15.994915         -0.00092732 -0.00021950  0.10464810   
	       1.000000             1.007825          1.49853424 -0.87056737 -0.55522319   
	       1.000000             1.007825         -1.48838796 -0.85370228 -0.55309972   
	       1.000000             1.007825          0.00457092  1.72775328 -0.55251841   

	 - Coordinate -           - BOHR/RAD -       - ANG/DEG -
	 R(1,2)           =         1.855080           0.981666
	 R(1,3)           =         1.836737           0.971960
	 R(1,4)           =         1.848726           0.978304
	 B(2,1,3)         =         1.885148         108.011005
	 B(2,1,4)         =         1.885650         108.039764
	 B(3,1,4)         =         1.885395         108.025159
	 O(2,1,3,4)       =         1.016192          58.223501
	 O(3,1,2,4)       =        -1.016326         -58.231178
	 O(4,1,2,3)       =         1.016062          58.216071
2026-01-05:16:03:53,260 INFO     [psi4.optking.history:269] 	Performing BFGS update.
2026-01-05:16:03:53,261 INFO     [psi4.optking.history:280] 	Using 4 previous steps for update.
2026-01-05:16:03:53,263 INFO     [psi4.optking.history:317] 	Steps to be used in Hessian update:  5 4 3 2

2026-01-05:16:03:53,266 INFO     [psi4.optking.history:418] 	Updated Hessian (in au) 
 	   0.266533   0.045814   0.050519   0.004875   0.005122   0.004978  -0.008881
	   0.008766  -0.008817
	   0.045814   0.265383   0.046889   0.002006   0.002017   0.002066  -0.005256
	   0.005238  -0.005144
	   0.050519   0.046889   0.263420   0.003912   0.004076   0.003993  -0.007662
	   0.007578  -0.007579
	   0.004875   0.002006   0.003912   0.090208  -0.039537  -0.038864  -0.030905
	   0.031263   0.044187
	   0.005122   0.002017   0.004076  -0.039537   0.089828  -0.038212  -0.030653
	  -0.043804  -0.031421
	   0.004978   0.002066   0.003993  -0.038864  -0.038212   0.089096   0.043441
	   0.030657  -0.031066
	  -0.008881  -0.005256  -0.007662  -0.030905  -0.030653   0.043441   0.037976
	   0.005127  -0.005274
	   0.008766   0.005238   0.007578   0.031263  -0.043804   0.030657   0.005127
	   0.038197   0.005438
	  -0.008817  -0.005144  -0.007579   0.044187  -0.031421  -0.031066  -0.005274
	   0.005438   0.038547

2026-01-05:16:03:53,267 INFO     [psi4.optking.molsys:944] Projected (PHP) Hessian matrix
	   0.266533   0.045814   0.050519   0.004875   0.005122   0.004978  -0.008881
	   0.008766  -0.008817
	   0.045814   0.265383   0.046889   0.002006   0.002017   0.002066  -0.005256
	   0.005238  -0.005144
	   0.050519   0.046889   0.263420   0.003912   0.004076   0.003993  -0.007662
	   0.007578  -0.007579
	   0.004875   0.002006   0.003912   0.090208  -0.039537  -0.038864  -0.030905
	   0.031263   0.044187
	   0.005122   0.002017   0.004076  -0.039537   0.089828  -0.038212  -0.030653
	  -0.043804  -0.031421
	   0.004978   0.002066   0.003993  -0.038864  -0.038212   0.089096   0.043441
	   0.030657  -0.031066
	  -0.008881  -0.005256  -0.007662  -0.030905  -0.030653   0.043441   0.037976
	   0.005127  -0.005274
	   0.008766   0.005238   0.007578   0.031263  -0.043804   0.030657   0.005127
	   0.038197   0.005438
	  -0.008817  -0.005144  -0.007579   0.044187  -0.031421  -0.031066  -0.005274
	   0.005438   0.038547

2026-01-05:16:03:53,267 INFO     [psi4.optking.opt_helper:182] 
	         Geometry (au)                                       Gradient (au)
  -0.0009273172  -0.0002195005   0.1046481026		  -0.0073800818  -0.0013444622   0.0340027612
   1.4985342351  -0.8705673693  -0.5552231928		   0.0104188261  -0.0061374864  -0.0127372709
  -1.4883879620  -0.8537022781  -0.5530997228		  -0.0029779750  -0.0016949074  -0.0096048070
   0.0045709236   1.7277532793  -0.5525184144		  -0.0000607693   0.0091768560  -0.0116606833

2026-01-05:16:03:53,268 INFO     [psi4.optking.stepAlgorithms:368] 	Current Step Report 
 
	Current energy:       -76.3073759241
	Energy change for the previous step:
		Actual       :        -0.0069842132
		Projected    :        -0.0076038149

2026-01-05:16:03:53,268 INFO     [psi4.optking.stepAlgorithms:371] 	Energy ratio =    0.91851
2026-01-05:16:03:53,269 INFO     [psi4.optking.stepAlgorithms:929] 	Using RFO solution 1.
2026-01-05:16:03:53,270 INFO     [psi4.optking.displace:100] 	Determining Cartesian step for fragment 1.
2026-01-05:16:03:53,276 INFO     [psi4.optking.displace:415] 	Successfully converged to displaced geometry.
2026-01-05:16:03:53,276 INFO     [psi4.optking.displace:416] 	RMS(dx):  4.983e-09 	Max(dx):  1.253e-08 	RMS(dq):  2.509e-03
2026-01-05:16:03:53,278 INFO     [psi4.optking.displace:172] 

	        --- Internal Coordinate Step in ANG or DEG, aJ/ANG or AJ/DEG ---
	-------------------------------------------------------------------------------
	           Coordinate      Previous         Force          Change          New 
	           ----------      --------        ------          ------        ------
	               R(1,2)       0.98167       -0.13043       -0.03389       0.94778
	               R(1,3)       0.97196       -0.05470       -0.00790       0.96406
	               R(1,4)       0.97830       -0.10482       -0.02508       0.95322
	             B(2,1,3)     108.01101        0.00016        3.21465     111.22566
	             B(2,1,4)     108.03976        0.00015        3.15032     111.19008
	             B(3,1,4)     108.02516        0.00016        3.20254     111.22770
	           O(2,1,3,4)      58.22350       -0.00037       -8.05514      50.16836
	           O(3,1,2,4)     -58.23118        0.00038        8.08031     -50.15087
	           O(4,1,2,3)      58.21607       -0.00037       -8.04866      50.16741
	-------------------------------------------------------------------------------

2026-01-05:16:03:53,278 INFO     [psi4.optking.stepAlgorithms:113] 	|target step| :    0.2743219214
2026-01-05:16:03:53,278 INFO     [psi4.optking.stepAlgorithms:114] 	gradient     :   -0.0150389040
2026-01-05:16:03:53,278 INFO     [psi4.optking.stepAlgorithms:115] 	hessian      :    0.0506428286
2026-01-05:16:03:53,278 INFO     [psi4.optking.stepAlgorithms:113] 	|target step| :    0.2746331570
2026-01-05:16:03:53,278 INFO     [psi4.optking.stepAlgorithms:114] 	gradient     :   -0.0150363799
2026-01-05:16:03:53,278 INFO     [psi4.optking.stepAlgorithms:115] 	hessian      :    0.0506212928
2026-01-05:16:03:53,279 INFO     [psi4.optking.stepAlgorithms:206] 	Norm of achieved step-size    0.2743219214
2026-01-05:16:03:53,279 INFO     [psi4.optking.stepAlgorithms:208] 	Norm of achieved step-size (cart):    0.1003051004
2026-01-05:16:03:53,280 INFO     [psi4.optking.opt_helper:164] Molsys:

	                            ===> Fragment 1 <== 

	 Z (Atomic Numbers)          Masses                          Geom                  
	       8.000000            15.994915          0.01055361  0.00179142  0.02169578   
	       1.000000             1.007825          1.48515024 -0.85497829 -0.52542607   
	       1.000000             1.007825         -1.49635925 -0.86189828 -0.52806481   
	       1.000000             1.007825          0.01444528  1.71834928 -0.52439814   

	 - Coordinate -           - BOHR/RAD -       - ANG/DEG -
	 R(1,2)           =         1.791042           0.947779
	 R(1,3)           =         1.821808           0.964059
	 R(1,4)           =         1.801334           0.953225
	 B(2,1,3)         =         1.941254         111.225660
	 B(2,1,4)         =         1.940633         111.190084
	 B(3,1,4)         =         1.941290         111.227703
	 O(2,1,3,4)       =         0.875603          50.168363
	 O(3,1,2,4)       =        -0.875298         -50.150867
	 O(4,1,2,3)       =         0.875587          50.167412



	        --- Internal Coordinate Step in ANG or DEG, aJ/ANG or AJ/DEG ---
	-------------------------------------------------------------------------------
	           Coordinate      Previous         Force          Change          New 
	           ----------      --------        ------          ------        ------
	               R(1,2)       0.98167       -0.13043       -0.03389       0.94778
	               R(1,3)       0.97196       -0.05470       -0.00790       0.96406
	               R(1,4)       0.97830       -0.10482       -0.02508       0.95322
	             B(2,1,3)     108.01101        0.00016        3.21465     111.22566
	             B(2,1,4)     108.03976        0.00015        3.15032     111.19008
	             B(3,1,4)     108.02516        0.00016        3.20254     111.22770
	           O(2,1,3,4)      58.22350       -0.00037       -8.05514      50.16836
	           O(3,1,2,4)     -58.23118        0.00038        8.08031     -50.15087
	           O(4,1,2,3)      58.21607       -0.00037       -8.04866      50.16741
	-------------------------------------------------------------------------------

	                                 ==> Convergence Check <==                                  
    
	Measures of convergence in internal coordinates in au.
    
	Criteria marked as inactive (o), active & met (*), and active & unmet ( ).

	----------------------------------------------------------------------------------------------
	   Step    Total Energy     Delta E     Max Force     RMS Force      Max Disp      RMS Disp   
	----------------------------------------------------------------------------------------------
	  Convergence Criteria     1.00e-06 *    3.00e-04 *             o    1.20e-03 *             o
	----------------------------------------------------------------------------------------------
	     6     -76.30737592   -6.98e-03      1.58e-02      7.75e-03 o    1.41e-01      9.14e-02 o  ~
	----------------------------------------------------------------------------------------------

Next Geometry in Ang 
	Fragment 1 (Ang)

	    O   0.0055847295   0.0009479774   0.0114809137
	    H   0.7859076639  -0.4524350257  -0.2780435012
	    H  -0.7918392141  -0.4560969263  -0.2794398608
	    H   0.0076441107   0.9093112786  -0.2774995431

2026-01-05:16:03:53,280 INFO     [psi4.optking.convcheck:76] Performing convergence check.
2026-01-05:16:03:53,280 INFO     [psi4.optking.convcheck:282] 
	                                 ==> Convergence Check <==                                  
    
	Measures of convergence in internal coordinates in au.
    
	Criteria marked as inactive (o), active & met (*), and active & unmet ( ).

	----------------------------------------------------------------------------------------------
	   Step    Total Energy     Delta E     Max Force     RMS Force      Max Disp      RMS Disp   
	----------------------------------------------------------------------------------------------
	  Convergence Criteria     1.00e-06 *    3.00e-04 *             o    1.20e-03 *             o
	----------------------------------------------------------------------------------------------
	     6     -76.30737592   -6.98e-03      1.58e-02      7.75e-03 o    1.41e-01      9.14e-02 o  ~
	----------------------------------------------------------------------------------------------


2026-01-05:16:03:53,280 INFO     [psi4.optking.stepAlgorithms:296] 	Convergence check returned False

    Structure for next step:
    Molecular point group: c1
    Full point group: C1

    Geometry (in Angstrom), charge = 1, multiplicity = 1:

    O            0.000797087944     0.000109407851     0.046072719244
    H            0.781120022341    -0.453273595201    -0.243451695623
    H           -0.796626855603    -0.456935495821    -0.244848055245
    H            0.002856469156     0.908472709031    -0.242907737563


Scratch directory: /tmp/
2026-01-05:16:03:53,298 INFO     [psi4.driver.task_planner:285] PLANNING Atomic:  keywords={'SCF__GUESS': 'READ', 'SCF__INTS_TOLERANCE': 1e-12, 'REFERENCE': 'RHF', 'function_kwargs': {}}
gradient() will perform analytic gradient computation.
2026-01-05:16:03:53,299 INFO     [psi4.driver.driver:636] Compute gradient(): method=hf, basis=6-31g(d,p), molecule=default, nre=14.306302348398935
   => Libint2 <=

    Primary   basis highest AM E, G, H:  6, 6, 3
    Auxiliary basis highest AM E, G, H:  7, 7, 4
    Onebody   basis highest AM E, G, H:  -, -, -
    Solid Harmonics ordering:            Gaussian

*** tstart() called on sugarcube
*** at Mon Jan  5 16:03:53 2026

   => Loading Basis Set <=

    Name: 6-31G(D,P)
    Role: ORBITAL
    Keyword: BASIS
    atoms 1   entry O          line   149 file /opt/tljh/user/envs/pchem2/share/psi4/basis/6-31g_d_p_.gbs 
    atoms 2-4 entry H          line    44 file /opt/tljh/user/envs/pchem2/share/psi4/basis/6-31g_d_p_.gbs 


         ---------------------------------------------------------
                                   SCF
               by Justin Turney, Rob Parrish, Andy Simmonett
                          and Daniel G. A. Smith
                              RHF Reference
                        1 Threads,    500 MiB Core
         ---------------------------------------------------------

  ==> Geometry <==

    Molecular point group: c1
    Full point group: C1

    Geometry (in Angstrom), charge = 1, multiplicity = 1:

       Center              X                  Y                   Z               Mass       
    ------------   -----------------  -----------------  -----------------  -----------------
         O            0.000797087944     0.000109407851     0.046072719244    15.994914619570
         H            0.781120022341    -0.453273595201    -0.243451695623     1.007825032230
         H           -0.796626855603    -0.456935495821    -0.244848055245     1.007825032230
         H            0.002856469156     0.908472709031    -0.242907737563     1.007825032230

  Running in c1 symmetry.

  Rotational constants: A =     11.60567  B =     11.40282  C =      6.73278 [cm^-1]
  Rotational constants: A = 347929.25814  B = 341848.02156  C = 201843.52909 [MHz]
  Nuclear repulsion =   14.306302348398935

  Charge       = 1
  Multiplicity = 1
  Electrons    = 10
  Nalpha       = 5
  Nbeta        = 5

  ==> Algorithm <==

  SCF Algorithm Type is DF.
  DIIS enabled.
  MOM disabled.
  Fractional occupation disabled.
  Guess Type is READ.
  Energy threshold   = 1.00e-08
  Density threshold  = 1.00e-08
  Integral threshold = 1.00e-12

  ==> Primary Basis <==

  Basis Set: 6-31G(D,P)
    Blend: 6-31G(D,P)
    Number of shells: 15
    Number of basis functions: 30
    Number of Cartesian functions: 30
    Spherical Harmonics?: false
    Max angular momentum: 2

   => Loading Basis Set <=

    Name: (6-31G(D,P) AUX)
    Role: JKFIT
    Keyword: DF_BASIS_SCF
    atoms 1   entry O          line   221 file /opt/tljh/user/envs/pchem2/share/psi4/basis/cc-pvdz-jkfit.gbs 
    atoms 2-4 entry H          line    51 file /opt/tljh/user/envs/pchem2/share/psi4/basis/cc-pvdz-jkfit.gbs 

   => Loading Basis Set <=

    Name: 6-31G(D,P)
    Role: ORBITAL
    Keyword: BASIS
    atoms 1   entry O          line   149 file /opt/tljh/user/envs/pchem2/share/psi4/basis/6-31g_d_p_.gbs 
    atoms 2-4 entry H          line    44 file /opt/tljh/user/envs/pchem2/share/psi4/basis/6-31g_d_p_.gbs 

  Reading orbitals from file /tmp/pyramidal_h30.default.79410.180.npy, no projection.

  ==> Integral Setup <==

  DFHelper Memory: AOs need 0.001 GiB; user supplied 0.366 GiB. 
  Using in-core AOs.

  ==> MemDFJK: Density-Fitted J/K Matrices <==

    J tasked:                   Yes
    K tasked:                   Yes
    wK tasked:                   No
    OpenMP threads:               1
    Memory [MiB]:               375
    Algorithm:                 Core
    Schwarz Cutoff:           1E-12
    Mask sparsity (%):       0.0000
    Fitting Condition:        1E-10

   => Auxiliary Basis Set <=

  Basis Set: (6-31G(D,P) AUX)
    Blend: CC-PVDZ-JKFIT
    Number of shells: 51
    Number of basis functions: 156
    Number of Cartesian functions: 156
    Spherical Harmonics?: false
    Max angular momentum: 3

  Minimum eigenvalue in the overlap matrix is 1.7867335774E-02.
  Reciprocal condition number of the overlap matrix is 3.2795228610E-03.
    Using symmetric orthogonalization.

  ==> Pre-Iterations <==

  SCF Guess: Orbitals guess was supplied from a previous computation.

   -------------------------------------------------------
    Irrep   Nso     Nmo     Nalpha   Nbeta   Ndocc  Nsocc
   -------------------------------------------------------
     A         30      30       5       5       5       0
   -------------------------------------------------------
    Total      30      30       5       5       5       0
   -------------------------------------------------------

  ==> Iterations <==

                           Total Energy        Delta E     RMS |[F,P]|

   @DF-RHF iter   0:   -76.36853313938187   -7.63685e+01   2.82774e-03 
   @DF-RHF iter   1:   -76.30909092864492    5.94422e-02   5.29072e-04 DIIS/ADIIS
   @DF-RHF iter   2:   -76.30923797889440   -1.47050e-04   2.63217e-04 DIIS/ADIIS
   @DF-RHF iter   3:   -76.30926247317981   -2.44943e-05   7.22217e-05 DIIS
   @DF-RHF iter   4:   -76.30926768535409   -5.21217e-06   1.39653e-05 DIIS
   @DF-RHF iter   5:   -76.30926794815829   -2.62804e-07   2.33663e-06 DIIS
   @DF-RHF iter   6:   -76.30926795423879   -6.08050e-09   3.44523e-07 DIIS
   @DF-RHF iter   7:   -76.30926795432953   -9.07363e-11   5.07872e-08 DIIS
   @DF-RHF iter   8:   -76.30926795433152   -1.98952e-12   5.96597e-09 DIIS
  Energy and wave function converged.


  ==> Post-Iterations <==

    Orbital Energies [Eh]
    ---------------------

    Doubly Occupied:                                                      

       1A    -21.018150     2A     -1.822327     3A     -1.153905  
       4A     -1.149195     5A     -0.963665  

    Virtual:                                                              

       6A     -0.107567     7A      0.000597     8A      0.004748  
       9A      0.634668    10A      0.637718    11A      0.729650  
      12A      0.764443    13A      0.895504    14A      0.896528  
      15A      1.111572    16A      1.324879    17A      1.326019  
      18A      1.932046    19A      2.026214    20A      2.250376  
      21A      2.263004    22A      2.453344    23A      2.467565  
      24A      2.697770    25A      3.057571    26A      3.070362  
      27A      3.302557    28A      3.482632    29A      3.498118  
      30A      4.009922  

    Final Occupation by Irrep:
              A 
    DOCC [     5 ]
    NA   [     5 ]
    NB   [     5 ]

  @DF-RHF Final Energy:   -76.30926795433152

   => Energetics <=

    Nuclear Repulsion Energy =             14.3063023483989351
    One-Electron Energy =                -129.0166545576299768
    Two-Electron Energy =                  38.4010842548995370
    Total Energy =                        -76.3092679543315171

Computation Completed


Properties will be evaluated at   0.000000,   0.000000,   0.000000 [a0]

Properties computed using the SCF density matrix


 Multipole Moments:

 ------------------------------------------------------------------------------------
     Multipole            Electronic (a.u.)      Nuclear  (a.u.)        Total (a.u.)
 ------------------------------------------------------------------------------------

 L = 1.  Multiply by 2.5417464519 to convert [e a0] to [Debye]
 Dipole X            :         -0.0046171           -0.0118555           -0.0164726
 Dipole Y            :         -0.0008844           -0.0016273           -0.0025117
 Dipole Z            :         -0.0571808           -0.6852633           -0.7424441
 Magnitude           :                                                    0.7426311

 ------------------------------------------------------------------------------------

*** tstop() called on sugarcube at Mon Jan  5 16:03:53 2026
Module time:
	user time   =       0.11 seconds =       0.00 minutes
	system time =       0.00 seconds =       0.00 minutes
	total time  =          0 seconds =       0.00 minutes
Total time:
	user time   =      33.21 seconds =       0.55 minutes
	system time =       0.85 seconds =       0.01 minutes
	total time  =         95 seconds =       1.58 minutes

*** tstart() called on sugarcube
*** at Mon Jan  5 16:03:53 2026


         ------------------------------------------------------------
                                   SCF GRAD                          
                          Rob Parrish, Justin Turney,                
                       Andy Simmonett, and Alex Sokolov              
         ------------------------------------------------------------

  ==> Geometry <==

    Molecular point group: c1
    Full point group: C1

    Geometry (in Angstrom), charge = 1, multiplicity = 1:

       Center              X                  Y                   Z               Mass       
    ------------   -----------------  -----------------  -----------------  -----------------
         O            0.000797087944     0.000109407851     0.046072719244    15.994914619570
         H            0.781120022341    -0.453273595201    -0.243451695623     1.007825032230
         H           -0.796626855603    -0.456935495821    -0.244848055245     1.007825032230
         H            0.002856469156     0.908472709031    -0.242907737563     1.007825032230

  Nuclear repulsion =   14.306302348398935

  ==> Basis Set <==

  Basis Set: 6-31G(D,P)
    Blend: 6-31G(D,P)
    Number of shells: 15
    Number of basis functions: 30
    Number of Cartesian functions: 30
    Spherical Harmonics?: false
    Max angular momentum: 2

  ==> DFJKGrad: Density-Fitted SCF Gradients <==

    Gradient:                    1
    J tasked:                  Yes
    K tasked:                  Yes
    wK tasked:                  No
    OpenMP threads:              1
    Integrals threads:           1
    Memory [MiB]:              375
    Schwarz Cutoff:          1E-12
    Fitting Condition:       1E-10

   => Auxiliary Basis Set <=

  Basis Set: (6-31G(D,P) AUX)
    Blend: CC-PVDZ-JKFIT
    Number of shells: 51
    Number of basis functions: 156
    Number of Cartesian functions: 156
    Spherical Harmonics?: false
    Max angular momentum: 3


  -Total Gradient:
     Atom            X                  Y                   Z
    ------   -----------------  -----------------  -----------------
       1        0.014525607346     0.002491508021     0.003248882860
       2       -0.015280381221     0.009029113843     0.001310663060
       3        0.000615936754     0.000311989413    -0.003991799279
       4        0.000138837120    -0.011832611277    -0.000567746641


*** tstop() called on sugarcube at Mon Jan  5 16:03:53 2026
Module time:
	user time   =       0.02 seconds =       0.00 minutes
	system time =       0.00 seconds =       0.00 minutes
	total time  =          0 seconds =       0.00 minutes
Total time:
	user time   =      33.24 seconds =       0.55 minutes
	system time =       0.85 seconds =       0.01 minutes
	total time  =         95 seconds =       1.58 minutes
2026-01-05:16:03:53,453 INFO     [psi4.driver.driver:639] Return gradient(): -76.30926795433152
2026-01-05:16:03:53,453 INFO     [psi4.driver.driver:640] [[ 0.01452561  0.00249151  0.00324888]
 [-0.01528038  0.00902911  0.00131066]
 [ 0.00061594  0.00031199 -0.00399180]
 [ 0.00013884 -0.01183261 -0.00056775]]

    			-----------------------------------------

    			 OPTKING 3.0: for geometry optimizations 

    			     By R.A. King, Bethel University     

    			        with contributions from          

    			    A.V. Copan, J. Cayton, A. Heide      

    			-----------------------------------------

    
	                            ===> Fragment 1 <== 

	 Z (Atomic Numbers)          Masses                          Geom                  
	       8.000000            15.994915          0.00150628  0.00020675  0.08706482   
	       1.000000             1.007825          1.47610291 -0.85656295 -0.46005703   
	       1.000000             1.007825         -1.50540658 -0.86348294 -0.46269577   
	       1.000000             1.007825          0.00539794  1.71676461 -0.45902910   

	 - Coordinate -           - BOHR/RAD -       - ANG/DEG -
	 R(1,2)           =         1.791042           0.947779
	 R(1,3)           =         1.821808           0.964059
	 R(1,4)           =         1.801334           0.953225
	 B(2,1,3)         =         1.941254         111.225660
	 B(2,1,4)         =         1.940633         111.190084
	 B(3,1,4)         =         1.941290         111.227703
	 O(2,1,3,4)       =         0.875603          50.168363
	 O(3,1,2,4)       =        -0.875298         -50.150867
	 O(4,1,2,3)       =         0.875587          50.167412
2026-01-05:16:03:53,457 INFO     [psi4.optking.history:269] 	Performing BFGS update.
2026-01-05:16:03:53,458 INFO     [psi4.optking.history:280] 	Using 4 previous steps for update.
2026-01-05:16:03:53,460 INFO     [psi4.optking.history:317] 	Steps to be used in Hessian update:  6 5 4 3

2026-01-05:16:03:53,463 INFO     [psi4.optking.history:418] 	Updated Hessian (in au) 
 	   0.392452   0.122630   0.159387   0.003395   0.004302   0.003247  -0.007379
	   0.006868  -0.007378
	   0.122630   0.381100   0.136776   0.008953   0.008356   0.008996  -0.012878
	   0.013210  -0.012972
	   0.159387   0.136776   0.365546   0.005329   0.005719   0.005239  -0.009330
	   0.009106  -0.009358
	   0.003395   0.008953   0.005329   0.093295  -0.042721  -0.041951  -0.028131
	   0.028560   0.042856
	   0.004302   0.008356   0.005719  -0.042721   0.092519  -0.041382  -0.027797
	  -0.042599  -0.028479
	   0.003247   0.008996   0.005239  -0.041951  -0.041382   0.092040   0.042155
	   0.027956  -0.028210
	  -0.007379  -0.012878  -0.009330  -0.028131  -0.027797   0.042155   0.031976
	   0.004789  -0.004923
	   0.006868   0.013210   0.009106   0.028560  -0.042599   0.027956   0.004789
	   0.032298   0.005083
	  -0.007378  -0.012972  -0.009358   0.042856  -0.028479  -0.028210  -0.004923
	   0.005083   0.032389

2026-01-05:16:03:53,464 INFO     [psi4.optking.molsys:944] Projected (PHP) Hessian matrix
	   0.392452   0.122630   0.159387   0.003395   0.004302   0.003247  -0.007379
	   0.006868  -0.007378
	   0.122630   0.381100   0.136776   0.008953   0.008356   0.008996  -0.012878
	   0.013210  -0.012972
	   0.159387   0.136776   0.365546   0.005329   0.005719   0.005239  -0.009330
	   0.009106  -0.009358
	   0.003395   0.008953   0.005329   0.093295  -0.042721  -0.041951  -0.028131
	   0.028560   0.042856
	   0.004302   0.008356   0.005719  -0.042721   0.092519  -0.041382  -0.027797
	  -0.042599  -0.028479
	   0.003247   0.008996   0.005239  -0.041951  -0.041382   0.092040   0.042155
	   0.027956  -0.028210
	  -0.007379  -0.012878  -0.009330  -0.028131  -0.027797   0.042155   0.031976
	   0.004789  -0.004923
	   0.006868   0.013210   0.009106   0.028560  -0.042599   0.027956   0.004789
	   0.032298   0.005083
	  -0.007378  -0.012972  -0.009358   0.042856  -0.028479  -0.028210  -0.004923
	   0.005083   0.032389

2026-01-05:16:03:53,464 INFO     [psi4.optking.opt_helper:182] 
	         Geometry (au)                                       Gradient (au)
   0.0015062779   0.0002067509   0.0870648212		   0.0145256073   0.0024915080   0.0032488829
   1.4761029133  -0.8565629548  -0.4600570295		  -0.0152803812   0.0090291138   0.0013106631
  -1.5054065813  -0.8634829441  -0.4626957668		   0.0006159368   0.0003119894  -0.0039917993
   0.0053979444   1.7167646125  -0.4590290977		   0.0001388371  -0.0118326113  -0.0005677466

2026-01-05:16:03:53,465 INFO     [psi4.optking.stepAlgorithms:368] 	Current Step Report 
 
	Current energy:       -76.3092679543
	Energy change for the previous step:
		Actual       :        -0.0018920302
		Projected    :        -0.0020647442

2026-01-05:16:03:53,465 INFO     [psi4.optking.stepAlgorithms:371] 	Energy ratio =    0.91635
2026-01-05:16:03:53,466 INFO     [psi4.optking.stepAlgorithms:929] 	Using RFO solution 1.
2026-01-05:16:03:53,466 INFO     [psi4.optking.displace:100] 	Determining Cartesian step for fragment 1.
2026-01-05:16:03:53,473 INFO     [psi4.optking.displace:415] 	Successfully converged to displaced geometry.
2026-01-05:16:03:53,473 INFO     [psi4.optking.displace:416] 	RMS(dx):  3.185e-11 	Max(dx):  6.961e-11 	RMS(dq):  8.208e-04
2026-01-05:16:03:53,475 INFO     [psi4.optking.displace:172] 

	        --- Internal Coordinate Step in ANG or DEG, aJ/ANG or AJ/DEG ---
	-------------------------------------------------------------------------------
	           Coordinate      Previous         Force          Change          New 
	           ----------      --------        ------          ------        ------
	               R(1,2)       0.94778        0.14253        0.02206       0.96984
	               R(1,3)       0.96406       -0.00451       -0.01631       0.94775
	               R(1,4)       0.95322        0.09148        0.00859       0.96181
	             B(2,1,3)     111.22566        0.00007        1.58496     112.81062
	             B(2,1,4)     111.19008        0.00008        1.64351     112.83360
	             B(3,1,4)     111.22770        0.00006        1.55744     112.78514
	           O(2,1,3,4)      50.16836       -0.00020       -4.65651      45.51185
	           O(3,1,2,4)     -50.15087        0.00019        4.61827     -45.53260
	           O(4,1,2,3)      50.16741       -0.00020       -4.64466      45.52275
	-------------------------------------------------------------------------------

2026-01-05:16:03:53,475 INFO     [psi4.optking.stepAlgorithms:113] 	|target step| :    0.1579608658
2026-01-05:16:03:53,475 INFO     [psi4.optking.stepAlgorithms:114] 	gradient     :   -0.0102270443
2026-01-05:16:03:53,475 INFO     [psi4.optking.stepAlgorithms:115] 	hessian      :    0.0631132843
2026-01-05:16:03:53,475 INFO     [psi4.optking.stepAlgorithms:113] 	|target step| :    0.1580185396
2026-01-05:16:03:53,475 INFO     [psi4.optking.stepAlgorithms:114] 	gradient     :   -0.0102257470
2026-01-05:16:03:53,475 INFO     [psi4.optking.stepAlgorithms:115] 	hessian      :    0.0630964669
2026-01-05:16:03:53,475 INFO     [psi4.optking.stepAlgorithms:206] 	Norm of achieved step-size    0.1579608658
2026-01-05:16:03:53,475 INFO     [psi4.optking.stepAlgorithms:208] 	Norm of achieved step-size (cart):    0.0744386367
2026-01-05:16:03:53,476 INFO     [psi4.optking.opt_helper:164] Molsys:

	                            ===> Fragment 1 <== 

	 Z (Atomic Numbers)          Masses                          Geom                  
	       8.000000            15.994915         -0.01509923 -0.00256140  0.04854740   
	       1.000000             1.007825          1.51033278 -0.88774882 -0.44987168   
	       1.000000             1.007825         -1.50808407 -0.85896973 -0.44664973   
	       1.000000             1.007825         -0.00954892  1.74620542 -0.44674306   

	 - Coordinate -           - BOHR/RAD -       - ANG/DEG -
	 R(1,2)           =         1.832736           0.969842
	 R(1,3)           =         1.790994           0.947753
	 R(1,4)           =         1.817561           0.961812
	 B(2,1,3)         =         1.968917         112.810618
	 B(2,1,4)         =         1.969318         112.833599
	 B(3,1,4)         =         1.968472         112.785145
	 O(2,1,3,4)       =         0.794332          45.511849
	 O(3,1,2,4)       =        -0.794694         -45.532602
	 O(4,1,2,3)       =         0.794522          45.522751



	        --- Internal Coordinate Step in ANG or DEG, aJ/ANG or AJ/DEG ---
	-------------------------------------------------------------------------------
	           Coordinate      Previous         Force          Change          New 
	           ----------      --------        ------          ------        ------
	               R(1,2)       0.94778        0.14253        0.02206       0.96984
	               R(1,3)       0.96406       -0.00451       -0.01631       0.94775
	               R(1,4)       0.95322        0.09148        0.00859       0.96181
	             B(2,1,3)     111.22566        0.00007        1.58496     112.81062
	             B(2,1,4)     111.19008        0.00008        1.64351     112.83360
	             B(3,1,4)     111.22770        0.00006        1.55744     112.78514
	           O(2,1,3,4)      50.16836       -0.00020       -4.65651      45.51185
	           O(3,1,2,4)     -50.15087        0.00019        4.61827     -45.53260
	           O(4,1,2,3)      50.16741       -0.00020       -4.64466      45.52275
	-------------------------------------------------------------------------------

	                                 ==> Convergence Check <==                                  
    
	Measures of convergence in internal coordinates in au.
    
	Criteria marked as inactive (o), active & met (*), and active & unmet ( ).

	----------------------------------------------------------------------------------------------
	   Step    Total Energy     Delta E     Max Force     RMS Force      Max Disp      RMS Disp   
	----------------------------------------------------------------------------------------------
	  Convergence Criteria     1.00e-06 *    3.00e-04 *             o    1.20e-03 *             o
	----------------------------------------------------------------------------------------------
	     7     -76.30926795   -1.89e-03      1.73e-02      7.03e-03 o    8.13e-02      5.27e-02 o  ~
	----------------------------------------------------------------------------------------------

Next Geometry in Ang 
	Fragment 1 (Ang)

	    O  -0.0079901703  -0.0013554363   0.0256901804
	    H   0.7992336875  -0.4697764466  -0.2380618423
	    H  -0.7980437201  -0.4545472059  -0.2363568596
	    H  -0.0050530733   0.9240521147  -0.2364062476

2026-01-05:16:03:53,477 INFO     [psi4.optking.convcheck:76] Performing convergence check.
2026-01-05:16:03:53,477 INFO     [psi4.optking.convcheck:282] 
	                                 ==> Convergence Check <==                                  
    
	Measures of convergence in internal coordinates in au.
    
	Criteria marked as inactive (o), active & met (*), and active & unmet ( ).

	----------------------------------------------------------------------------------------------
	   Step    Total Energy     Delta E     Max Force     RMS Force      Max Disp      RMS Disp   
	----------------------------------------------------------------------------------------------
	  Convergence Criteria     1.00e-06 *    3.00e-04 *             o    1.20e-03 *             o
	----------------------------------------------------------------------------------------------
	     7     -76.30926795   -1.89e-03      1.73e-02      7.03e-03 o    8.13e-02      5.27e-02 o  ~
	----------------------------------------------------------------------------------------------


2026-01-05:16:03:53,477 INFO     [psi4.optking.stepAlgorithms:296] 	Convergence check returned False

    Structure for next step:
    Molecular point group: c1
    Full point group: C1

    Geometry (in Angstrom), charge = 1, multiplicity = 1:

    O           -0.001065534280    -0.000201093017     0.041752262420
    H            0.806158323579    -0.468622103337    -0.221999760239
    H           -0.791119084045    -0.453392862595    -0.220294777574
    H            0.001871562733     0.925206458044    -0.220344165555


Scratch directory: /tmp/
2026-01-05:16:03:53,494 INFO     [psi4.driver.task_planner:285] PLANNING Atomic:  keywords={'SCF__GUESS': 'READ', 'SCF__INTS_TOLERANCE': 1e-12, 'REFERENCE': 'RHF', 'function_kwargs': {}}
gradient() will perform analytic gradient computation.
2026-01-05:16:03:53,496 INFO     [psi4.driver.driver:636] Compute gradient(): method=hf, basis=6-31g(d,p), molecule=default, nre=14.226208717351213
   => Libint2 <=

    Primary   basis highest AM E, G, H:  6, 6, 3
    Auxiliary basis highest AM E, G, H:  7, 7, 4
    Onebody   basis highest AM E, G, H:  -, -, -
    Solid Harmonics ordering:            Gaussian

*** tstart() called on sugarcube
*** at Mon Jan  5 16:03:53 2026

   => Loading Basis Set <=

    Name: 6-31G(D,P)
    Role: ORBITAL
    Keyword: BASIS
    atoms 1   entry O          line   149 file /opt/tljh/user/envs/pchem2/share/psi4/basis/6-31g_d_p_.gbs 
    atoms 2-4 entry H          line    44 file /opt/tljh/user/envs/pchem2/share/psi4/basis/6-31g_d_p_.gbs 


         ---------------------------------------------------------
                                   SCF
               by Justin Turney, Rob Parrish, Andy Simmonett
                          and Daniel G. A. Smith
                              RHF Reference
                        1 Threads,    500 MiB Core
         ---------------------------------------------------------

  ==> Geometry <==

    Molecular point group: c1
    Full point group: C1

    Geometry (in Angstrom), charge = 1, multiplicity = 1:

       Center              X                  Y                   Z               Mass       
    ------------   -----------------  -----------------  -----------------  -----------------
         O           -0.001065534280    -0.000201093017     0.041752262420    15.994914619570
         H            0.806158323579    -0.468622103337    -0.221999760239     1.007825032230
         H           -0.791119084045    -0.453392862595    -0.220294777574     1.007825032230
         H            0.001871562733     0.925206458044    -0.220344165555     1.007825032230

  Running in c1 symmetry.

  Rotational constants: A =     11.65683  B =     11.37824  C =      6.54157 [cm^-1]
  Rotational constants: A = 349462.86727  B = 341111.13534  C = 196111.31735 [MHz]
  Nuclear repulsion =   14.226208717351213

  Charge       = 1
  Multiplicity = 1
  Electrons    = 10
  Nalpha       = 5
  Nbeta        = 5

  ==> Algorithm <==

  SCF Algorithm Type is DF.
  DIIS enabled.
  MOM disabled.
  Fractional occupation disabled.
  Guess Type is READ.
  Energy threshold   = 1.00e-08
  Density threshold  = 1.00e-08
  Integral threshold = 1.00e-12

  ==> Primary Basis <==

  Basis Set: 6-31G(D,P)
    Blend: 6-31G(D,P)
    Number of shells: 15
    Number of basis functions: 30
    Number of Cartesian functions: 30
    Spherical Harmonics?: false
    Max angular momentum: 2

   => Loading Basis Set <=

    Name: (6-31G(D,P) AUX)
    Role: JKFIT
    Keyword: DF_BASIS_SCF
    atoms 1   entry O          line   221 file /opt/tljh/user/envs/pchem2/share/psi4/basis/cc-pvdz-jkfit.gbs 
    atoms 2-4 entry H          line    51 file /opt/tljh/user/envs/pchem2/share/psi4/basis/cc-pvdz-jkfit.gbs 

   => Loading Basis Set <=

    Name: 6-31G(D,P)
    Role: ORBITAL
    Keyword: BASIS
    atoms 1   entry O          line   149 file /opt/tljh/user/envs/pchem2/share/psi4/basis/6-31g_d_p_.gbs 
    atoms 2-4 entry H          line    44 file /opt/tljh/user/envs/pchem2/share/psi4/basis/6-31g_d_p_.gbs 

  Reading orbitals from file /tmp/pyramidal_h30.default.79410.180.npy, no projection.

  ==> Integral Setup <==

  DFHelper Memory: AOs need 0.001 GiB; user supplied 0.366 GiB. 
  Using in-core AOs.

  ==> MemDFJK: Density-Fitted J/K Matrices <==

    J tasked:                   Yes
    K tasked:                   Yes
    wK tasked:                   No
    OpenMP threads:               1
    Memory [MiB]:               375
    Algorithm:                 Core
    Schwarz Cutoff:           1E-12
    Mask sparsity (%):       0.0000
    Fitting Condition:        1E-10

   => Auxiliary Basis Set <=

  Basis Set: (6-31G(D,P) AUX)
    Blend: CC-PVDZ-JKFIT
    Number of shells: 51
    Number of basis functions: 156
    Number of Cartesian functions: 156
    Spherical Harmonics?: false
    Max angular momentum: 3

  Minimum eigenvalue in the overlap matrix is 1.8080983030E-02.
  Reciprocal condition number of the overlap matrix is 3.3365586976E-03.
    Using symmetric orthogonalization.

  ==> Pre-Iterations <==

  SCF Guess: Orbitals guess was supplied from a previous computation.

   -------------------------------------------------------
    Irrep   Nso     Nmo     Nalpha   Nbeta   Ndocc  Nsocc
   -------------------------------------------------------
     A         30      30       5       5       5       0
   -------------------------------------------------------
    Total      30      30       5       5       5       0
   -------------------------------------------------------

  ==> Iterations <==

                           Total Energy        Delta E     RMS |[F,P]|

   @DF-RHF iter   0:   -76.29291116455860   -7.62929e+01   2.12948e-03 
   @DF-RHF iter   1:   -76.30975990351433   -1.68487e-02   3.87159e-04 DIIS/ADIIS
   @DF-RHF iter   2:   -76.30981383848476   -5.39350e-05   1.43648e-04 DIIS/ADIIS
   @DF-RHF iter   3:   -76.30982122908836   -7.39060e-06   4.29819e-05 DIIS
   @DF-RHF iter   4:   -76.30982235477089   -1.12568e-06   1.02597e-05 DIIS
   @DF-RHF iter   5:   -76.30982247927450   -1.24504e-07   1.90289e-06 DIIS
   @DF-RHF iter   6:   -76.30982248366365   -4.38915e-09   1.92911e-07 DIIS
   @DF-RHF iter   7:   -76.30982248369756   -3.39071e-11   2.81340e-08 DIIS
   @DF-RHF iter   8:   -76.30982248369828   -7.24754e-13   4.66685e-09 DIIS
  Energy and wave function converged.


  ==> Post-Iterations <==

    Orbital Energies [Eh]
    ---------------------

    Doubly Occupied:                                                      

       1A    -21.015197     2A     -1.814785     3A     -1.152102  
       4A     -1.145719     5A     -0.956734  

    Virtual:                                                              

       6A     -0.108270     7A     -0.000018     8A      0.005646  
       9A      0.638590    10A      0.642452    11A      0.719656  
      12A      0.762081    13A      0.895618    14A      0.896918  
      15A      1.104544    16A      1.332963    17A      1.334611  
      18A      1.953186    19A      2.012217    20A      2.227102  
      21A      2.245349    22A      2.471519    23A      2.489227  
      24A      2.643672    25A      3.043234    26A      3.059646  
      27A      3.301057    28A      3.470596    29A      3.491576  
      30A      4.024231  

    Final Occupation by Irrep:
              A 
    DOCC [     5 ]
    NA   [     5 ]
    NB   [     5 ]

  @DF-RHF Final Energy:   -76.30982248369828

   => Energetics <=

    Nuclear Repulsion Energy =             14.2262087173512128
    One-Electron Energy =                -128.9029880243996615
    Two-Electron Energy =                  38.3669568233501721
    Total Energy =                        -76.3098224836982695

Computation Completed


Properties will be evaluated at   0.000000,   0.000000,   0.000000 [a0]

Properties computed using the SCF density matrix


 Multipole Moments:

 ------------------------------------------------------------------------------------
     Multipole            Electronic (a.u.)      Nuclear  (a.u.)        Total (a.u.)
 ------------------------------------------------------------------------------------

 L = 1.  Multiply by 2.5417464519 to convert [e a0] to [Debye]
 Dipole X            :          0.0066381            0.0158482            0.0224863
 Dipole Y            :          0.0009762            0.0029910            0.0039672
 Dipole Z            :         -0.0569554           -0.6210029           -0.6779584
 Magnitude           :                                                    0.6783428

 ------------------------------------------------------------------------------------

*** tstop() called on sugarcube at Mon Jan  5 16:03:53 2026
Module time:
	user time   =       0.12 seconds =       0.00 minutes
	system time =       0.00 seconds =       0.00 minutes
	total time  =          0 seconds =       0.00 minutes
Total time:
	user time   =      33.41 seconds =       0.56 minutes
	system time =       0.85 seconds =       0.01 minutes
	total time  =         95 seconds =       1.58 minutes

*** tstart() called on sugarcube
*** at Mon Jan  5 16:03:53 2026


         ------------------------------------------------------------
                                   SCF GRAD                          
                          Rob Parrish, Justin Turney,                
                       Andy Simmonett, and Alex Sokolov              
         ------------------------------------------------------------

  ==> Geometry <==

    Molecular point group: c1
    Full point group: C1

    Geometry (in Angstrom), charge = 1, multiplicity = 1:

       Center              X                  Y                   Z               Mass       
    ------------   -----------------  -----------------  -----------------  -----------------
         O           -0.001065534280    -0.000201093017     0.041752262420    15.994914619570
         H            0.806158323579    -0.468622103337    -0.221999760239     1.007825032230
         H           -0.791119084045    -0.453392862595    -0.220294777574     1.007825032230
         H            0.001871562733     0.925206458044    -0.220344165555     1.007825032230

  Nuclear repulsion =   14.226208717351213

  ==> Basis Set <==

  Basis Set: 6-31G(D,P)
    Blend: 6-31G(D,P)
    Number of shells: 15
    Number of basis functions: 30
    Number of Cartesian functions: 30
    Spherical Harmonics?: false
    Max angular momentum: 2

  ==> DFJKGrad: Density-Fitted SCF Gradients <==

    Gradient:                    1
    J tasked:                  Yes
    K tasked:                  Yes
    wK tasked:                  No
    OpenMP threads:              1
    Integrals threads:           1
    Memory [MiB]:              375
    Schwarz Cutoff:          1E-12
    Fitting Condition:       1E-10

   => Auxiliary Basis Set <=

  Basis Set: (6-31G(D,P) AUX)
    Blend: CC-PVDZ-JKFIT
    Number of shells: 51
    Number of basis functions: 156
    Number of Cartesian functions: 156
    Spherical Harmonics?: false
    Max angular momentum: 3


  -Total Gradient:
     Atom            X                  Y                   Z
    ------   -----------------  -----------------  -----------------
       1       -0.019534995131    -0.003455127624     0.003036128848
       2        0.005769360911    -0.003469562554    -0.003872126662
       3        0.013961322078     0.008109001023     0.002529274139
       4       -0.000195687858    -0.001184310846    -0.001693276325


*** tstop() called on sugarcube at Mon Jan  5 16:03:53 2026
Module time:
	user time   =       0.03 seconds =       0.00 minutes
	system time =       0.00 seconds =       0.00 minutes
	total time  =          0 seconds =       0.00 minutes
Total time:
	user time   =      33.44 seconds =       0.56 minutes
	system time =       0.85 seconds =       0.01 minutes
	total time  =         95 seconds =       1.58 minutes
2026-01-05:16:03:53,650 INFO     [psi4.driver.driver:639] Return gradient(): -76.30982248369828
2026-01-05:16:03:53,650 INFO     [psi4.driver.driver:640] [[-0.01953500 -0.00345513  0.00303613]
 [ 0.00576936 -0.00346956 -0.00387213]
 [ 0.01396132  0.00810900  0.00252927]
 [-0.00019569 -0.00118431 -0.00169328]]

    			-----------------------------------------

    			 OPTKING 3.0: for geometry optimizations 

    			     By R.A. King, Bethel University     

    			        with contributions from          

    			    A.V. Copan, J. Cayton, A. Heide      

    			-----------------------------------------

    
	                            ===> Fragment 1 <== 

	 Z (Atomic Numbers)          Masses                          Geom                  
	       8.000000            15.994915         -0.00201357 -0.00038001  0.07890034   
	       1.000000             1.007825          1.52341845 -0.88556743 -0.41951875   
	       1.000000             1.007825         -1.49499840 -0.85678834 -0.41629680   
	       1.000000             1.007825          0.00353674  1.74838682 -0.41639013   

	 - Coordinate -           - BOHR/RAD -       - ANG/DEG -
	 R(1,2)           =         1.832736           0.969842
	 R(1,3)           =         1.790994           0.947753
	 R(1,4)           =         1.817561           0.961812
	 B(2,1,3)         =         1.968917         112.810618
	 B(2,1,4)         =         1.969318         112.833599
	 B(3,1,4)         =         1.968472         112.785145
	 O(2,1,3,4)       =         0.794332          45.511849
	 O(3,1,2,4)       =        -0.794694         -45.532602
	 O(4,1,2,3)       =         0.794522          45.522751
2026-01-05:16:03:53,654 INFO     [psi4.optking.history:269] 	Performing BFGS update.
2026-01-05:16:03:53,655 INFO     [psi4.optking.history:280] 	Using 4 previous steps for update.
2026-01-05:16:03:53,657 INFO     [psi4.optking.history:317] 	Steps to be used in Hessian update:  7 6 5 4

2026-01-05:16:03:53,659 INFO     [psi4.optking.history:418] 	Updated Hessian (in au) 
 	   0.475362  -0.068110   0.147747   0.003759   0.007121   0.001839  -0.006176
	   0.003723  -0.005303
	  -0.068110   0.557347   0.073261   0.001366  -0.002619   0.003331  -0.006145
	   0.008709  -0.006994
	   0.147747   0.073261   0.336129   0.002955   0.003777   0.002371  -0.006247
	   0.005526  -0.005966
	   0.003759   0.001366   0.002955   0.096871  -0.045350  -0.044635  -0.025884
	   0.026158   0.040010
	   0.007121  -0.002619   0.003777  -0.045350   0.096376  -0.044059  -0.025534
	  -0.039752  -0.026131
	   0.001839   0.003331   0.002371  -0.044635  -0.044059   0.095485   0.039368
	   0.025558  -0.025879
	  -0.006176  -0.006145  -0.006247  -0.025884  -0.025534   0.039368   0.027243
	   0.002959  -0.003146
	   0.003723   0.008709   0.005526   0.026158  -0.039752   0.025558   0.002959
	   0.027397   0.003242
	  -0.005303  -0.006994  -0.005966   0.040010  -0.026131  -0.025879  -0.003146
	   0.003242   0.027530

2026-01-05:16:03:53,661 INFO     [psi4.optking.molsys:944] Projected (PHP) Hessian matrix
	   0.475362  -0.068110   0.147747   0.003759   0.007121   0.001839  -0.006176
	   0.003723  -0.005303
	  -0.068110   0.557347   0.073261   0.001366  -0.002619   0.003331  -0.006145
	   0.008709  -0.006994
	   0.147747   0.073261   0.336129   0.002955   0.003777   0.002371  -0.006247
	   0.005526  -0.005966
	   0.003759   0.001366   0.002955   0.096871  -0.045350  -0.044635  -0.025884
	   0.026158   0.040010
	   0.007121  -0.002619   0.003777  -0.045350   0.096376  -0.044059  -0.025534
	  -0.039752  -0.026131
	   0.001839   0.003331   0.002371  -0.044635  -0.044059   0.095485   0.039368
	   0.025558  -0.025879
	  -0.006176  -0.006145  -0.006247  -0.025884  -0.025534   0.039368   0.027243
	   0.002959  -0.003146
	   0.003723   0.008709   0.005526   0.026158  -0.039752   0.025558   0.002959
	   0.027397   0.003242
	  -0.005303  -0.006994  -0.005966   0.040010  -0.026131  -0.025879  -0.003146
	   0.003242   0.027530

2026-01-05:16:03:53,661 INFO     [psi4.optking.opt_helper:182] 
	         Geometry (au)                                       Gradient (au)
  -0.0020135680  -0.0003800107   0.0789003411		  -0.0195349951  -0.0034551276   0.0030361288
   1.5234184453  -0.8855674316  -0.4195187468		   0.0057693609  -0.0034695626  -0.0038721267
  -1.4949984015  -0.8567883375  -0.4162967965		   0.0139613221   0.0081090010   0.0025292741
   0.0035367410   1.7483868152  -0.4163901262		  -0.0001956879  -0.0011843108  -0.0016932763

2026-01-05:16:03:53,662 INFO     [psi4.optking.stepAlgorithms:368] 	Current Step Report 
 
	Current energy:       -76.3098224837
	Energy change for the previous step:
		Actual       :        -0.0005545294
		Projected    :        -0.0008079288

2026-01-05:16:03:53,662 INFO     [psi4.optking.stepAlgorithms:371] 	Energy ratio =    0.68636
2026-01-05:16:03:53,662 INFO     [psi4.optking.stepAlgorithms:929] 	Using RFO solution 1.
2026-01-05:16:03:53,663 INFO     [psi4.optking.displace:100] 	Determining Cartesian step for fragment 1.
2026-01-05:16:03:53,668 INFO     [psi4.optking.displace:415] 	Successfully converged to displaced geometry.
2026-01-05:16:03:53,668 INFO     [psi4.optking.displace:416] 	RMS(dx):  7.676e-09 	Max(dx):  1.628e-08 	RMS(dq):  2.085e-04
2026-01-05:16:03:53,670 INFO     [psi4.optking.displace:172] 

	        --- Internal Coordinate Step in ANG or DEG, aJ/ANG or AJ/DEG ---
	-------------------------------------------------------------------------------
	           Coordinate      Previous         Force          Change          New 
	           ----------      --------        ------          ------        ------
	               R(1,2)       0.96984       -0.06204       -0.00729       0.96255
	               R(1,3)       0.94775        0.13359        0.01361       0.96137
	               R(1,4)       0.96181        0.00559       -0.00003       0.96179
	             B(2,1,3)     112.81062        0.00003        0.73869     113.54931
	             B(2,1,4)     112.83360        0.00002        0.72715     113.56075
	             B(3,1,4)     112.78514        0.00004        0.76210     113.54725
	           O(2,1,3,4)      45.51185       -0.00009       -2.34126      43.17059
	           O(3,1,2,4)     -45.53260        0.00010        2.35649     -43.17611
	           O(4,1,2,3)      45.52275       -0.00009       -2.35132      43.17144
	-------------------------------------------------------------------------------

2026-01-05:16:03:53,670 INFO     [psi4.optking.stepAlgorithms:113] 	|target step| :    0.0800090735
2026-01-05:16:03:53,670 INFO     [psi4.optking.stepAlgorithms:114] 	gradient     :   -0.0085821314
2026-01-05:16:03:53,670 INFO     [psi4.optking.stepAlgorithms:115] 	hessian      :    0.1065741924
2026-01-05:16:03:53,671 INFO     [psi4.optking.stepAlgorithms:113] 	|target step| :    0.0800164131
2026-01-05:16:03:53,671 INFO     [psi4.optking.stepAlgorithms:114] 	gradient     :   -0.0085816366
2026-01-05:16:03:53,671 INFO     [psi4.optking.stepAlgorithms:115] 	hessian      :    0.1065617827
2026-01-05:16:03:53,671 INFO     [psi4.optking.stepAlgorithms:206] 	Norm of achieved step-size    0.0800090735
2026-01-05:16:03:53,671 INFO     [psi4.optking.stepAlgorithms:208] 	Norm of achieved step-size (cart):    0.0373144751
2026-01-05:16:03:53,672 INFO     [psi4.optking.opt_helper:164] Molsys:

	                            ===> Fragment 1 <== 

	 Z (Atomic Numbers)          Masses                          Geom                  
	       8.000000            15.994915          0.00705755  0.00126302  0.05939958   
	       1.000000             1.007825          1.52624207 -0.88116457 -0.41176482   
	       1.000000             1.007825         -1.51506596 -0.87166715 -0.41135311   
	       1.000000             1.007825          0.01170955  1.75721973 -0.40958698   

	 - Coordinate -           - BOHR/RAD -       - ANG/DEG -
	 R(1,2)           =         1.818955           0.962549
	 R(1,3)           =         1.816721           0.961367
	 R(1,4)           =         1.817513           0.961787
	 B(2,1,3)         =         1.981809         113.549307
	 B(2,1,4)         =         1.982009         113.560746
	 B(3,1,4)         =         1.981773         113.547248
	 O(2,1,3,4)       =         0.753469          43.170594
	 O(3,1,2,4)       =        -0.753565         -43.176115
	 O(4,1,2,3)       =         0.753484          43.171436



	        --- Internal Coordinate Step in ANG or DEG, aJ/ANG or AJ/DEG ---
	-------------------------------------------------------------------------------
	           Coordinate      Previous         Force          Change          New 
	           ----------      --------        ------          ------        ------
	               R(1,2)       0.96984       -0.06204       -0.00729       0.96255
	               R(1,3)       0.94775        0.13359        0.01361       0.96137
	               R(1,4)       0.96181        0.00559       -0.00003       0.96179
	             B(2,1,3)     112.81062        0.00003        0.73869     113.54931
	             B(2,1,4)     112.83360        0.00002        0.72715     113.56075
	             B(3,1,4)     112.78514        0.00004        0.76210     113.54725
	           O(2,1,3,4)      45.51185       -0.00009       -2.34126      43.17059
	           O(3,1,2,4)     -45.53260        0.00010        2.35649     -43.17611
	           O(4,1,2,3)      45.52275       -0.00009       -2.35132      43.17144
	-------------------------------------------------------------------------------

	                                 ==> Convergence Check <==                                  
    
	Measures of convergence in internal coordinates in au.
    
	Criteria marked as inactive (o), active & met (*), and active & unmet ( ).

	----------------------------------------------------------------------------------------------
	   Step    Total Energy     Delta E     Max Force     RMS Force      Max Disp      RMS Disp   
	----------------------------------------------------------------------------------------------
	  Convergence Criteria     1.00e-06 *    3.00e-04 *             o    1.20e-03 *             o
	----------------------------------------------------------------------------------------------
	     8     -76.30982248   -5.55e-04      1.62e-02      6.01e-03 o    4.11e-02      2.67e-02 o  ~
	----------------------------------------------------------------------------------------------

Next Geometry in Ang 
	Fragment 1 (Ang)

	    O   0.0037346946   0.0006683594   0.0314329015
	    H   0.8076525201  -0.4662922077  -0.2178965567
	    H  -0.8017383763  -0.4612663904  -0.2176786896
	    H   0.0061964296   0.9298806378  -0.2167440960

2026-01-05:16:03:53,672 INFO     [psi4.optking.convcheck:76] Performing convergence check.
2026-01-05:16:03:53,672 INFO     [psi4.optking.convcheck:282] 
	                                 ==> Convergence Check <==                                  
    
	Measures of convergence in internal coordinates in au.
    
	Criteria marked as inactive (o), active & met (*), and active & unmet ( ).

	----------------------------------------------------------------------------------------------
	   Step    Total Energy     Delta E     Max Force     RMS Force      Max Disp      RMS Disp   
	----------------------------------------------------------------------------------------------
	  Convergence Criteria     1.00e-06 *    3.00e-04 *             o    1.20e-03 *             o
	----------------------------------------------------------------------------------------------
	     8     -76.30982248   -5.55e-04      1.62e-02      6.01e-03 o    4.11e-02      2.67e-02 o  ~
	----------------------------------------------------------------------------------------------


2026-01-05:16:03:53,672 INFO     [psi4.optking.stepAlgorithms:296] 	Convergence check returned False

    Structure for next step:
    Molecular point group: c1
    Full point group: C1

    Geometry (in Angstrom), charge = 1, multiplicity = 1:

    O           -0.000048036820    -0.000016796471     0.039564882635
    H            0.803869788697    -0.466977363531    -0.209764575527
    H           -0.805521107702    -0.461951546231    -0.209546708462
    H            0.002413698201     0.929195481940    -0.208612114861


Scratch directory: /tmp/
2026-01-05:16:03:53,689 INFO     [psi4.driver.task_planner:285] PLANNING Atomic:  keywords={'SCF__GUESS': 'READ', 'SCF__INTS_TOLERANCE': 1e-12, 'REFERENCE': 'RHF', 'function_kwargs': {}}
gradient() will perform analytic gradient computation.
2026-01-05:16:03:53,691 INFO     [psi4.driver.driver:636] Compute gradient(): method=hf, basis=6-31g(d,p), molecule=default, nre=14.189741529605271
   => Libint2 <=

    Primary   basis highest AM E, G, H:  6, 6, 3
    Auxiliary basis highest AM E, G, H:  7, 7, 4
    Onebody   basis highest AM E, G, H:  -, -, -
    Solid Harmonics ordering:            Gaussian

*** tstart() called on sugarcube
*** at Mon Jan  5 16:03:53 2026

   => Loading Basis Set <=

    Name: 6-31G(D,P)
    Role: ORBITAL
    Keyword: BASIS
    atoms 1   entry O          line   149 file /opt/tljh/user/envs/pchem2/share/psi4/basis/6-31g_d_p_.gbs 
    atoms 2-4 entry H          line    44 file /opt/tljh/user/envs/pchem2/share/psi4/basis/6-31g_d_p_.gbs 


         ---------------------------------------------------------
                                   SCF
               by Justin Turney, Rob Parrish, Andy Simmonett
                          and Daniel G. A. Smith
                              RHF Reference
                        1 Threads,    500 MiB Core
         ---------------------------------------------------------

  ==> Geometry <==

    Molecular point group: c1
    Full point group: C1

    Geometry (in Angstrom), charge = 1, multiplicity = 1:

       Center              X                  Y                   Z               Mass       
    ------------   -----------------  -----------------  -----------------  -----------------
         O           -0.000048036820    -0.000016796471     0.039564882635    15.994914619570
         H            0.803869788697    -0.466977363531    -0.209764575527     1.007825032230
         H           -0.805521107702    -0.461951546231    -0.209546708462     1.007825032230
         H            0.002413698201     0.929195481940    -0.208612114861     1.007825032230

  Running in c1 symmetry.

  Rotational constants: A =     11.53403  B =     11.51752  C =      6.45833 [cm^-1]
  Rotational constants: A = 345781.61246  B = 345286.46832  C = 193615.82839 [MHz]
  Nuclear repulsion =   14.189741529605271

  Charge       = 1
  Multiplicity = 1
  Electrons    = 10
  Nalpha       = 5
  Nbeta        = 5

  ==> Algorithm <==

  SCF Algorithm Type is DF.
  DIIS enabled.
  MOM disabled.
  Fractional occupation disabled.
  Guess Type is READ.
  Energy threshold   = 1.00e-08
  Density threshold  = 1.00e-08
  Integral threshold = 1.00e-12

  ==> Primary Basis <==

  Basis Set: 6-31G(D,P)
    Blend: 6-31G(D,P)
    Number of shells: 15
    Number of basis functions: 30
    Number of Cartesian functions: 30
    Spherical Harmonics?: false
    Max angular momentum: 2

   => Loading Basis Set <=

    Name: (6-31G(D,P) AUX)
    Role: JKFIT
    Keyword: DF_BASIS_SCF
    atoms 1   entry O          line   221 file /opt/tljh/user/envs/pchem2/share/psi4/basis/cc-pvdz-jkfit.gbs 
    atoms 2-4 entry H          line    51 file /opt/tljh/user/envs/pchem2/share/psi4/basis/cc-pvdz-jkfit.gbs 

   => Loading Basis Set <=

    Name: 6-31G(D,P)
    Role: ORBITAL
    Keyword: BASIS
    atoms 1   entry O          line   149 file /opt/tljh/user/envs/pchem2/share/psi4/basis/6-31g_d_p_.gbs 
    atoms 2-4 entry H          line    44 file /opt/tljh/user/envs/pchem2/share/psi4/basis/6-31g_d_p_.gbs 

  Reading orbitals from file /tmp/pyramidal_h30.default.79410.180.npy, no projection.

  ==> Integral Setup <==

  DFHelper Memory: AOs need 0.001 GiB; user supplied 0.366 GiB. 
  Using in-core AOs.

  ==> MemDFJK: Density-Fitted J/K Matrices <==

    J tasked:                   Yes
    K tasked:                   Yes
    wK tasked:                   No
    OpenMP threads:               1
    Memory [MiB]:               375
    Algorithm:                 Core
    Schwarz Cutoff:           1E-12
    Mask sparsity (%):       0.0000
    Fitting Condition:        1E-10

   => Auxiliary Basis Set <=

  Basis Set: (6-31G(D,P) AUX)
    Blend: CC-PVDZ-JKFIT
    Number of shells: 51
    Number of basis functions: 156
    Number of Cartesian functions: 156
    Spherical Harmonics?: false
    Max angular momentum: 3

  Minimum eigenvalue in the overlap matrix is 1.8183413310E-02.
  Reciprocal condition number of the overlap matrix is 3.3635455557E-03.
    Using symmetric orthogonalization.

  ==> Pre-Iterations <==

  SCF Guess: Orbitals guess was supplied from a previous computation.

   -------------------------------------------------------
    Irrep   Nso     Nmo     Nalpha   Nbeta   Ndocc  Nsocc
   -------------------------------------------------------
     A         30      30       5       5       5       0
   -------------------------------------------------------
    Total      30      30       5       5       5       0
   -------------------------------------------------------

  ==> Iterations <==

                           Total Energy        Delta E     RMS |[F,P]|

   @DF-RHF iter   0:   -76.30269311716164   -7.63027e+01   1.14187e-03 
   @DF-RHF iter   1:   -76.31020453168750   -7.51141e-03   1.92337e-04 DIIS/ADIIS
   @DF-RHF iter   2:   -76.31021844915774   -1.39175e-05   6.64776e-05 DIIS
   @DF-RHF iter   3:   -76.31022012018755   -1.67103e-06   2.22487e-05 DIIS
   @DF-RHF iter   4:   -76.31022040821669   -2.88029e-07   5.33649e-06 DIIS
   @DF-RHF iter   5:   -76.31022044158513   -3.33684e-08   1.00112e-06 DIIS
   @DF-RHF iter   6:   -76.31022044281181   -1.22668e-09   9.96888e-08 DIIS
   @DF-RHF iter   7:   -76.31022044282105   -9.23706e-12   1.41615e-08 DIIS
   @DF-RHF iter   8:   -76.31022044282111   -5.68434e-14   2.15646e-09 DIIS
  Energy and wave function converged.


  ==> Post-Iterations <==

    Orbital Energies [Eh]
    ---------------------

    Doubly Occupied:                                                      

       1A    -21.013832     2A     -1.811295     3A     -1.147891  
       4A     -1.147570     5A     -0.953575  

    Virtual:                                                              

       6A     -0.108487     7A      0.002749     8A      0.003049  
       9A      0.642726    10A      0.642903    11A      0.713123  
      12A      0.762271    13A      0.896212    14A      0.896269  
      15A      1.101536    16A      1.337620    17A      1.337742  
      18A      1.964468    19A      2.006221    20A      2.226034  
      21A      2.227092    22A      2.490807    23A      2.491667  
      24A      2.617746    25A      3.042289    26A      3.043231  
      27A      3.302638    28A      3.476248    29A      3.477293  
      30A      4.030700  

    Final Occupation by Irrep:
              A 
    DOCC [     5 ]
    NA   [     5 ]
    NB   [     5 ]

  @DF-RHF Final Energy:   -76.31022044282111

   => Energetics <=

    Nuclear Repulsion Energy =             14.1897415296052714
    One-Electron Energy =                -128.8515949534755123
    Two-Electron Energy =                  38.3516329810491428
    Total Energy =                        -76.3102204428211053

Computation Completed


Properties will be evaluated at   0.000000,   0.000000,   0.000000 [a0]

Properties computed using the SCF density matrix


 Multipole Moments:

 ------------------------------------------------------------------------------------
     Multipole            Electronic (a.u.)      Nuclear  (a.u.)        Total (a.u.)
 ------------------------------------------------------------------------------------

 L = 1.  Multiply by 2.5417464519 to convert [e a0] to [Debye]
 Dipole X            :          0.0003772            0.0007145            0.0010917
 Dipole Y            :         -0.0000136            0.0002498            0.0002362
 Dipole Z            :         -0.0562394           -0.5884689           -0.6447083
 Magnitude           :                                                    0.6447093

 ------------------------------------------------------------------------------------

*** tstop() called on sugarcube at Mon Jan  5 16:03:53 2026
Module time:
	user time   =       0.12 seconds =       0.00 minutes
	system time =       0.01 seconds =       0.00 minutes
	total time  =          0 seconds =       0.00 minutes
Total time:
	user time   =      33.60 seconds =       0.56 minutes
	system time =       0.86 seconds =       0.01 minutes
	total time  =         95 seconds =       1.58 minutes

*** tstart() called on sugarcube
*** at Mon Jan  5 16:03:53 2026


         ------------------------------------------------------------
                                   SCF GRAD                          
                          Rob Parrish, Justin Turney,                
                       Andy Simmonett, and Alex Sokolov              
         ------------------------------------------------------------

  ==> Geometry <==

    Molecular point group: c1
    Full point group: C1

    Geometry (in Angstrom), charge = 1, multiplicity = 1:

       Center              X                  Y                   Z               Mass       
    ------------   -----------------  -----------------  -----------------  -----------------
         O           -0.000048036820    -0.000016796471     0.039564882635    15.994914619570
         H            0.803869788697    -0.466977363531    -0.209764575527     1.007825032230
         H           -0.805521107702    -0.461951546231    -0.209546708462     1.007825032230
         H            0.002413698201     0.929195481940    -0.208612114861     1.007825032230

  Nuclear repulsion =   14.189741529605271

  ==> Basis Set <==

  Basis Set: 6-31G(D,P)
    Blend: 6-31G(D,P)
    Number of shells: 15
    Number of basis functions: 30
    Number of Cartesian functions: 30
    Spherical Harmonics?: false
    Max angular momentum: 2

  ==> DFJKGrad: Density-Fitted SCF Gradients <==

    Gradient:                    1
    J tasked:                  Yes
    K tasked:                  Yes
    wK tasked:                  No
    OpenMP threads:              1
    Integrals threads:           1
    Memory [MiB]:              375
    Schwarz Cutoff:          1E-12
    Fitting Condition:       1E-10

   => Auxiliary Basis Set <=

  Basis Set: (6-31G(D,P) AUX)
    Blend: CC-PVDZ-JKFIT
    Number of shells: 51
    Number of basis functions: 156
    Number of Cartesian functions: 156
    Spherical Harmonics?: false
    Max angular momentum: 3


  -Total Gradient:
     Atom            X                  Y                   Z
    ------   -----------------  -----------------  -----------------
       1       -0.001006612240     0.000181194772     0.003089840823
       2        0.000246836281    -0.000161818899    -0.001201171814
       3        0.000784576742     0.000458693530    -0.000890488646
       4       -0.000024800783    -0.000478069403    -0.000998180363


*** tstop() called on sugarcube at Mon Jan  5 16:03:53 2026
Module time:
	user time   =       0.03 seconds =       0.00 minutes
	system time =       0.00 seconds =       0.00 minutes
	total time  =          0 seconds =       0.00 minutes
Total time:
	user time   =      33.63 seconds =       0.56 minutes
	system time =       0.86 seconds =       0.01 minutes
	total time  =         95 seconds =       1.58 minutes
2026-01-05:16:03:53,844 INFO     [psi4.driver.driver:639] Return gradient(): -76.3102204428211
2026-01-05:16:03:53,845 INFO     [psi4.driver.driver:640] [[-0.00100661  0.00018119  0.00308984]
 [ 0.00024684 -0.00016182 -0.00120117]
 [ 0.00078458  0.00045869 -0.00089049]
 [-0.00002480 -0.00047807 -0.00099818]]

    			-----------------------------------------

    			 OPTKING 3.0: for geometry optimizations 

    			     By R.A. King, Bethel University     

    			        with contributions from          

    			    A.V. Copan, J. Cayton, A. Heide      

    			-----------------------------------------

    
	                            ===> Fragment 1 <== 

	 Z (Atomic Numbers)          Masses                          Geom                  
	       8.000000            15.994915         -0.00009078 -0.00003174  0.07476679   
	       1.000000             1.007825          1.51909374 -0.88245932 -0.39639760   
	       1.000000             1.007825         -1.52221428 -0.87296191 -0.39598589   
	       1.000000             1.007825          0.00456123  1.75592498 -0.39421976   

	 - Coordinate -           - BOHR/RAD -       - ANG/DEG -
	 R(1,2)           =         1.818955           0.962549
	 R(1,3)           =         1.816721           0.961367
	 R(1,4)           =         1.817513           0.961787
	 B(2,1,3)         =         1.981809         113.549307
	 B(2,1,4)         =         1.982009         113.560746
	 B(3,1,4)         =         1.981773         113.547248
	 O(2,1,3,4)       =         0.753469          43.170594
	 O(3,1,2,4)       =        -0.753565         -43.176115
	 O(4,1,2,3)       =         0.753484          43.171436
2026-01-05:16:03:53,848 INFO     [psi4.optking.history:269] 	Performing BFGS update.
2026-01-05:16:03:53,849 INFO     [psi4.optking.history:280] 	Using 4 previous steps for update.
2026-01-05:16:03:53,851 INFO     [psi4.optking.history:317] 	Steps to be used in Hessian update:  8 7 6 5

2026-01-05:16:03:53,854 INFO     [psi4.optking.history:418] 	Updated Hessian (in au) 
 	   0.456185  -0.052244   0.143050   0.003988   0.006829   0.002275  -0.008348
	   0.006157  -0.007562
	  -0.052244   0.550677   0.074120   0.003848   0.000641   0.005560  -0.005095
	   0.007187  -0.005829
	   0.143050   0.074120   0.332497   0.003932   0.004718   0.003318  -0.007259
	   0.006496  -0.006962
	   0.003988   0.003848   0.003932   0.098652  -0.047395  -0.046691  -0.023622
	   0.023989   0.038600
	   0.006829   0.000641   0.004718  -0.047395   0.098027  -0.046051  -0.023380
	  -0.038362  -0.023987
	   0.002275   0.005560   0.003318  -0.046691  -0.046051   0.097316   0.037981
	   0.023391  -0.023633
	  -0.008348  -0.005095  -0.007259  -0.023622  -0.023380   0.037981   0.023475
	   0.002791  -0.002886
	   0.006157   0.007187   0.006496   0.023989  -0.038362   0.023391   0.002791
	   0.023673   0.003064
	  -0.007562  -0.005829  -0.006962   0.038600  -0.023987  -0.023633  -0.002886
	   0.003064   0.023752

2026-01-05:16:03:53,856 INFO     [psi4.optking.molsys:944] Projected (PHP) Hessian matrix
	   0.456185  -0.052244   0.143050   0.003988   0.006829   0.002275  -0.008348
	   0.006157  -0.007562
	  -0.052244   0.550677   0.074120   0.003848   0.000641   0.005560  -0.005095
	   0.007187  -0.005829
	   0.143050   0.074120   0.332497   0.003932   0.004718   0.003318  -0.007259
	   0.006496  -0.006962
	   0.003988   0.003848   0.003932   0.098652  -0.047395  -0.046691  -0.023622
	   0.023989   0.038600
	   0.006829   0.000641   0.004718  -0.047395   0.098027  -0.046051  -0.023380
	  -0.038362  -0.023987
	   0.002275   0.005560   0.003318  -0.046691  -0.046051   0.097316   0.037981
	   0.023391  -0.023633
	  -0.008348  -0.005095  -0.007259  -0.023622  -0.023380   0.037981   0.023475
	   0.002791  -0.002886
	   0.006157   0.007187   0.006496   0.023989  -0.038362   0.023391   0.002791
	   0.023673   0.003064
	  -0.007562  -0.005829  -0.006962   0.038600  -0.023987  -0.023633  -0.002886
	   0.003064   0.023752

2026-01-05:16:03:53,856 INFO     [psi4.optking.opt_helper:182] 
	         Geometry (au)                                       Gradient (au)
  -0.0000907764  -0.0000317407   0.0747667924		  -0.0010066122   0.0001811948   0.0030898408
   1.5190937412  -0.8824593239  -0.3963975986		   0.0002468363  -0.0001618189  -0.0012011718
  -1.5222142818  -0.8729619056  -0.3959858895		   0.0007845767   0.0004586935  -0.0008904886
   0.0045612285   1.7559249779  -0.3942197635		  -0.0000248008  -0.0004780694  -0.0009981804

2026-01-05:16:03:53,857 INFO     [psi4.optking.stepAlgorithms:368] 	Current Step Report 
 
	Current energy:       -76.3102204428
	Energy change for the previous step:
		Actual       :        -0.0003979591
		Projected    :        -0.0003433359

2026-01-05:16:03:53,857 INFO     [psi4.optking.stepAlgorithms:371] 	Energy ratio =    1.15910
2026-01-05:16:03:53,857 INFO     [psi4.optking.stepAlgorithms:929] 	Using RFO solution 1.
2026-01-05:16:03:53,858 INFO     [psi4.optking.displace:100] 	Determining Cartesian step for fragment 1.
2026-01-05:16:03:53,863 INFO     [psi4.optking.displace:415] 	Successfully converged to displaced geometry.
2026-01-05:16:03:53,863 INFO     [psi4.optking.displace:416] 	RMS(dx):  2.978e-09 	Max(dx):  8.677e-09 	RMS(dq):  1.304e-04
2026-01-05:16:03:53,865 INFO     [psi4.optking.displace:172] 

	        --- Internal Coordinate Step in ANG or DEG, aJ/ANG or AJ/DEG ---
	-------------------------------------------------------------------------------
	           Coordinate      Previous         Force          Change          New 
	           ----------      --------        ------          ------        ------
	               R(1,2)       0.96255       -0.00491       -0.00163       0.96092
	               R(1,3)       0.96137        0.00533       -0.00017       0.96120
	               R(1,4)       0.96179        0.00168       -0.00020       0.96159
	             B(2,1,3)     113.54931        0.00002        0.56014     114.10945
	             B(2,1,4)     113.56075        0.00001        0.55353     114.11428
	             B(3,1,4)     113.54725        0.00002        0.56213     114.10938
	           O(2,1,3,4)      43.17059       -0.00005       -1.86314      41.30746
	           O(3,1,2,4)     -43.17611        0.00005        1.86673     -41.30938
	           O(4,1,2,3)      43.17144       -0.00005       -1.86395      41.30748
	-------------------------------------------------------------------------------

2026-01-05:16:03:53,865 INFO     [psi4.optking.stepAlgorithms:113] 	|target step| :    0.0589249695
2026-01-05:16:03:53,865 INFO     [psi4.optking.stepAlgorithms:114] 	gradient     :   -0.0012544340
2026-01-05:16:03:53,865 INFO     [psi4.optking.stepAlgorithms:115] 	hessian      :    0.0212129025
2026-01-05:16:03:53,865 INFO     [psi4.optking.stepAlgorithms:113] 	|target step| :    0.0589288686
2026-01-05:16:03:53,865 INFO     [psi4.optking.stepAlgorithms:114] 	gradient     :   -0.0012544597
2026-01-05:16:03:53,865 INFO     [psi4.optking.stepAlgorithms:115] 	hessian      :    0.0212137695
2026-01-05:16:03:53,865 INFO     [psi4.optking.stepAlgorithms:206] 	Norm of achieved step-size    0.0589249695
2026-01-05:16:03:53,865 INFO     [psi4.optking.stepAlgorithms:208] 	Norm of achieved step-size (cart):    0.0203219193
2026-01-05:16:03:53,866 INFO     [psi4.optking.opt_helper:164] Molsys:

	                            ===> Fragment 1 <== 

	 Z (Atomic Numbers)          Masses                          Geom                  
	       8.000000            15.994915          0.00050848 -0.00038549  0.05850576   
	       1.000000             1.007825          1.52190262 -0.88402887 -0.39085711   
	       1.000000             1.007825         -1.52625673 -0.87593512 -0.39062507   
	       1.000000             1.007825          0.00519553  1.76082149 -0.38886004   

	 - Coordinate -           - BOHR/RAD -       - ANG/DEG -
	 R(1,2)           =         1.815872           0.960918
	 R(1,3)           =         1.816402           0.961199
	 R(1,4)           =         1.817143           0.961591
	 B(2,1,3)         =         1.991586         114.109448
	 B(2,1,4)         =         1.991670         114.114279
	 B(3,1,4)         =         1.991584         114.109381
	 O(2,1,3,4)       =         0.720951          41.307457
	 O(3,1,2,4)       =        -0.720985         -41.309383
	 O(4,1,2,3)       =         0.720952          41.307483



	        --- Internal Coordinate Step in ANG or DEG, aJ/ANG or AJ/DEG ---
	-------------------------------------------------------------------------------
	           Coordinate      Previous         Force          Change          New 
	           ----------      --------        ------          ------        ------
	               R(1,2)       0.96255       -0.00491       -0.00163       0.96092
	               R(1,3)       0.96137        0.00533       -0.00017       0.96120
	               R(1,4)       0.96179        0.00168       -0.00020       0.96159
	             B(2,1,3)     113.54931        0.00002        0.56014     114.10945
	             B(2,1,4)     113.56075        0.00001        0.55353     114.11428
	             B(3,1,4)     113.54725        0.00002        0.56213     114.10938
	           O(2,1,3,4)      43.17059       -0.00005       -1.86314      41.30746
	           O(3,1,2,4)     -43.17611        0.00005        1.86673     -41.30938
	           O(4,1,2,3)      43.17144       -0.00005       -1.86395      41.30748
	-------------------------------------------------------------------------------

	                                 ==> Convergence Check <==                                  
    
	Measures of convergence in internal coordinates in au.
    
	Criteria marked as inactive (o), active & met (*), and active & unmet ( ).

	----------------------------------------------------------------------------------------------
	   Step    Total Energy     Delta E     Max Force     RMS Force      Max Disp      RMS Disp   
	----------------------------------------------------------------------------------------------
	  Convergence Criteria     1.00e-06 *    3.00e-04 *             o    1.20e-03 *             o
	----------------------------------------------------------------------------------------------
	     9     -76.31022044   -3.98e-04      6.88e-04      5.09e-04 o    3.26e-02      1.96e-02 o  ~
	----------------------------------------------------------------------------------------------

Next Geometry in Ang 
	Fragment 1 (Ang)

	    O   0.0002690784  -0.0002039905   0.0309599137
	    H   0.8053561858  -0.4678079329  -0.2068326753
	    H  -0.8076602785  -0.4635249039  -0.2067098833
	    H   0.0027493567   0.9317866031  -0.2057758713

2026-01-05:16:03:53,867 INFO     [psi4.optking.convcheck:76] Performing convergence check.
2026-01-05:16:03:53,867 INFO     [psi4.optking.convcheck:282] 
	                                 ==> Convergence Check <==                                  
    
	Measures of convergence in internal coordinates in au.
    
	Criteria marked as inactive (o), active & met (*), and active & unmet ( ).

	----------------------------------------------------------------------------------------------
	   Step    Total Energy     Delta E     Max Force     RMS Force      Max Disp      RMS Disp   
	----------------------------------------------------------------------------------------------
	  Convergence Criteria     1.00e-06 *    3.00e-04 *             o    1.20e-03 *             o
	----------------------------------------------------------------------------------------------
	     9     -76.31022044   -3.98e-04      6.88e-04      5.09e-04 o    3.26e-02      1.96e-02 o  ~
	----------------------------------------------------------------------------------------------


2026-01-05:16:03:53,867 INFO     [psi4.optking.stepAlgorithms:296] 	Convergence check returned False

    Structure for next step:
    Molecular point group: c1
    Full point group: C1

    Geometry (in Angstrom), charge = 1, multiplicity = 1:

    O            0.000019181632    -0.000056475714     0.037740900007
    H            0.805106288979    -0.467660418157    -0.200051688954
    H           -0.807910175316    -0.463377389165    -0.199928896955
    H            0.002499459917     0.931934117881    -0.198994885010


Scratch directory: /tmp/
2026-01-05:16:03:53,884 INFO     [psi4.driver.task_planner:285] PLANNING Atomic:  keywords={'SCF__GUESS': 'READ', 'SCF__INTS_TOLERANCE': 1e-12, 'REFERENCE': 'RHF', 'function_kwargs': {}}
gradient() will perform analytic gradient computation.
2026-01-05:16:03:53,886 INFO     [psi4.driver.driver:636] Compute gradient(): method=hf, basis=6-31g(d,p), molecule=default, nre=14.196428569426692
   => Libint2 <=

    Primary   basis highest AM E, G, H:  6, 6, 3
    Auxiliary basis highest AM E, G, H:  7, 7, 4
    Onebody   basis highest AM E, G, H:  -, -, -
    Solid Harmonics ordering:            Gaussian

*** tstart() called on sugarcube
*** at Mon Jan  5 16:03:53 2026

   => Loading Basis Set <=

    Name: 6-31G(D,P)
    Role: ORBITAL
    Keyword: BASIS
    atoms 1   entry O          line   149 file /opt/tljh/user/envs/pchem2/share/psi4/basis/6-31g_d_p_.gbs 
    atoms 2-4 entry H          line    44 file /opt/tljh/user/envs/pchem2/share/psi4/basis/6-31g_d_p_.gbs 


         ---------------------------------------------------------
                                   SCF
               by Justin Turney, Rob Parrish, Andy Simmonett
                          and Daniel G. A. Smith
                              RHF Reference
                        1 Threads,    500 MiB Core
         ---------------------------------------------------------

  ==> Geometry <==

    Molecular point group: c1
    Full point group: C1

    Geometry (in Angstrom), charge = 1, multiplicity = 1:

       Center              X                  Y                   Z               Mass       
    ------------   -----------------  -----------------  -----------------  -----------------
         O            0.000019181632    -0.000056475714     0.037740900007    15.994914619570
         H            0.805106288979    -0.467660418157    -0.200051688954     1.007825032230
         H           -0.807910175316    -0.463377389165    -0.199928896955     1.007825032230
         H            0.002499459917     0.931934117881    -0.198994885010     1.007825032230

  Running in c1 symmetry.

  Rotational constants: A =     11.59095  B =     11.58238  C =      6.42632 [cm^-1]
  Rotational constants: A = 347487.89799  B = 347230.91617  C = 192656.33036 [MHz]
  Nuclear repulsion =   14.196428569426692

  Charge       = 1
  Multiplicity = 1
  Electrons    = 10
  Nalpha       = 5
  Nbeta        = 5

  ==> Algorithm <==

  SCF Algorithm Type is DF.
  DIIS enabled.
  MOM disabled.
  Fractional occupation disabled.
  Guess Type is READ.
  Energy threshold   = 1.00e-08
  Density threshold  = 1.00e-08
  Integral threshold = 1.00e-12

  ==> Primary Basis <==

  Basis Set: 6-31G(D,P)
    Blend: 6-31G(D,P)
    Number of shells: 15
    Number of basis functions: 30
    Number of Cartesian functions: 30
    Spherical Harmonics?: false
    Max angular momentum: 2

   => Loading Basis Set <=

    Name: (6-31G(D,P) AUX)
    Role: JKFIT
    Keyword: DF_BASIS_SCF
    atoms 1   entry O          line   221 file /opt/tljh/user/envs/pchem2/share/psi4/basis/cc-pvdz-jkfit.gbs 
    atoms 2-4 entry H          line    51 file /opt/tljh/user/envs/pchem2/share/psi4/basis/cc-pvdz-jkfit.gbs 

   => Loading Basis Set <=

    Name: 6-31G(D,P)
    Role: ORBITAL
    Keyword: BASIS
    atoms 1   entry O          line   149 file /opt/tljh/user/envs/pchem2/share/psi4/basis/6-31g_d_p_.gbs 
    atoms 2-4 entry H          line    44 file /opt/tljh/user/envs/pchem2/share/psi4/basis/6-31g_d_p_.gbs 

  Reading orbitals from file /tmp/pyramidal_h30.default.79410.180.npy, no projection.

  ==> Integral Setup <==

  DFHelper Memory: AOs need 0.001 GiB; user supplied 0.366 GiB. 
  Using in-core AOs.

  ==> MemDFJK: Density-Fitted J/K Matrices <==

    J tasked:                   Yes
    K tasked:                   Yes
    wK tasked:                   No
    OpenMP threads:               1
    Memory [MiB]:               375
    Algorithm:                 Core
    Schwarz Cutoff:           1E-12
    Mask sparsity (%):       0.0000
    Fitting Condition:        1E-10

   => Auxiliary Basis Set <=

  Basis Set: (6-31G(D,P) AUX)
    Blend: CC-PVDZ-JKFIT
    Number of shells: 51
    Number of basis functions: 156
    Number of Cartesian functions: 156
    Spherical Harmonics?: false
    Max angular momentum: 3

  Minimum eigenvalue in the overlap matrix is 1.8187022397E-02.
  Reciprocal condition number of the overlap matrix is 3.3652978729E-03.
    Using symmetric orthogonalization.

  ==> Pre-Iterations <==

  SCF Guess: Orbitals guess was supplied from a previous computation.

   -------------------------------------------------------
    Irrep   Nso     Nmo     Nalpha   Nbeta   Ndocc  Nsocc
   -------------------------------------------------------
     A         30      30       5       5       5       0
   -------------------------------------------------------
    Total      30      30       5       5       5       0
   -------------------------------------------------------

  ==> Iterations <==

                           Total Energy        Delta E     RMS |[F,P]|

   @DF-RHF iter   0:   -76.31138894378992   -7.63114e+01   3.45045e-04 
   @DF-RHF iter   1:   -76.31026990362854    1.11904e-03   8.41827e-05 DIIS
   @DF-RHF iter   2:   -76.31027358290406   -3.67928e-06   2.39019e-05 DIIS
   @DF-RHF iter   3:   -76.31027414606667   -5.63163e-07   1.01793e-05 DIIS
   @DF-RHF iter   4:   -76.31027421873543   -7.26688e-08   2.61238e-06 DIIS
   @DF-RHF iter   5:   -76.31027422520576   -6.47033e-09   3.54819e-07 DIIS
   @DF-RHF iter   6:   -76.31027422534984   -1.44084e-10   4.91406e-08 DIIS
   @DF-RHF iter   7:   -76.31027422535165   -1.80478e-12   5.63964e-09 DIIS
  Energy and wave function converged.


  ==> Post-Iterations <==

    Orbital Energies [Eh]
    ---------------------

    Doubly Occupied:                                                      

       1A    -21.012956     2A     -1.810598     3A     -1.148756  
       4A     -1.148560     5A     -0.952016  

    Virtual:                                                              

       6A     -0.108176     7A      0.003473     8A      0.003643  
       9A      0.644694    10A      0.644824    11A      0.709951  
      12A      0.762261    13A      0.896284    14A      0.896319  
      15A      1.099791    16A      1.340424    17A      1.340477  
      18A      1.975044    19A      2.003456    20A      2.221748  
      21A      2.222318    22A      2.503005    23A      2.503525  
      24A      2.600663    25A      3.039861    26A      3.040320  
      27A      3.307876    28A      3.478480    29A      3.479013  
      30A      4.039501  

    Final Occupation by Irrep:
              A 
    DOCC [     5 ]
    NA   [     5 ]
    NB   [     5 ]

  @DF-RHF Final Energy:   -76.31027422535165

   => Energetics <=

    Nuclear Repulsion Energy =             14.1964285694266916
    One-Electron Energy =                -128.8676334838418143
    Two-Electron Energy =                  38.3609306890634727
    Total Energy =                        -76.3102742253516624

Computation Completed


Properties will be evaluated at   0.000000,   0.000000,   0.000000 [a0]

Properties computed using the SCF density matrix


 Multipole Moments:

 ------------------------------------------------------------------------------------
     Multipole            Electronic (a.u.)      Nuclear  (a.u.)        Total (a.u.)
 ------------------------------------------------------------------------------------

 L = 1.  Multiply by 2.5417464519 to convert [e a0] to [Debye]
 Dipole X            :         -0.0000855           -0.0002853           -0.0003707
 Dipole Y            :          0.0002370            0.0008400            0.0010770
 Dipole Z            :         -0.0551518           -0.5613399           -0.6164916
 Magnitude           :                                                    0.6164927

 ------------------------------------------------------------------------------------

*** tstop() called on sugarcube at Mon Jan  5 16:03:54 2026
Module time:
	user time   =       0.12 seconds =       0.00 minutes
	system time =       0.00 seconds =       0.00 minutes
	total time  =          1 seconds =       0.02 minutes
Total time:
	user time   =      33.79 seconds =       0.56 minutes
	system time =       0.86 seconds =       0.01 minutes
	total time  =         96 seconds =       1.60 minutes

*** tstart() called on sugarcube
*** at Mon Jan  5 16:03:54 2026


         ------------------------------------------------------------
                                   SCF GRAD                          
                          Rob Parrish, Justin Turney,                
                       Andy Simmonett, and Alex Sokolov              
         ------------------------------------------------------------

  ==> Geometry <==

    Molecular point group: c1
    Full point group: C1

    Geometry (in Angstrom), charge = 1, multiplicity = 1:

       Center              X                  Y                   Z               Mass       
    ------------   -----------------  -----------------  -----------------  -----------------
         O            0.000019181632    -0.000056475714     0.037740900007    15.994914619570
         H            0.805106288979    -0.467660418157    -0.200051688954     1.007825032230
         H           -0.807910175316    -0.463377389165    -0.199928896955     1.007825032230
         H            0.002499459917     0.931934117881    -0.198994885010     1.007825032230

  Nuclear repulsion =   14.196428569426692

  ==> Basis Set <==

  Basis Set: 6-31G(D,P)
    Blend: 6-31G(D,P)
    Number of shells: 15
    Number of basis functions: 30
    Number of Cartesian functions: 30
    Spherical Harmonics?: false
    Max angular momentum: 2

  ==> DFJKGrad: Density-Fitted SCF Gradients <==

    Gradient:                    1
    J tasked:                  Yes
    K tasked:                  Yes
    wK tasked:                  No
    OpenMP threads:              1
    Integrals threads:           1
    Memory [MiB]:              375
    Schwarz Cutoff:          1E-12
    Fitting Condition:       1E-10

   => Auxiliary Basis Set <=

  Basis Set: (6-31G(D,P) AUX)
    Blend: CC-PVDZ-JKFIT
    Number of shells: 51
    Number of basis functions: 156
    Number of Cartesian functions: 156
    Spherical Harmonics?: false
    Max angular momentum: 3


  -Total Gradient:
     Atom            X                  Y                   Z
    ------   -----------------  -----------------  -----------------
       1        0.000253502030    -0.000536542573     0.001307061328
       2       -0.000764785302     0.000435258344    -0.000352672397
       3        0.000516455430     0.000292642714    -0.000427731467
       4       -0.000005172157    -0.000191358485    -0.000526657464


*** tstop() called on sugarcube at Mon Jan  5 16:03:54 2026
Module time:
	user time   =       0.03 seconds =       0.00 minutes
	system time =       0.00 seconds =       0.00 minutes
	total time  =          0 seconds =       0.00 minutes
Total time:
	user time   =      33.82 seconds =       0.56 minutes
	system time =       0.86 seconds =       0.01 minutes
	total time  =         96 seconds =       1.60 minutes
2026-01-05:16:03:54,36 INFO     [psi4.driver.driver:639] Return gradient(): -76.31027422535165
2026-01-05:16:03:54,36 INFO     [psi4.driver.driver:640] [[ 0.00025350 -0.00053654  0.00130706]
 [-0.00076479  0.00043526 -0.00035267]
 [ 0.00051646  0.00029264 -0.00042773]
 [-0.00000517 -0.00019136 -0.00052666]]

    			-----------------------------------------

    			 OPTKING 3.0: for geometry optimizations 

    			     By R.A. King, Bethel University     

    			        with contributions from          

    			    A.V. Copan, J. Cayton, A. Heide      

    			-----------------------------------------

    
	                            ===> Fragment 1 <== 

	 Z (Atomic Numbers)          Masses                          Geom                  
	       8.000000            15.994915          0.00003625 -0.00010672  0.07131996   
	       1.000000             1.007825          1.52143039 -0.88375011 -0.37804290   
	       1.000000             1.007825         -1.52672897 -0.87565636 -0.37781086   
	       1.000000             1.007825          0.00472329  1.76110025 -0.37604583   

	 - Coordinate -           - BOHR/RAD -       - ANG/DEG -
	 R(1,2)           =         1.815872           0.960918
	 R(1,3)           =         1.816402           0.961199
	 R(1,4)           =         1.817143           0.961591
	 B(2,1,3)         =         1.991586         114.109448
	 B(2,1,4)         =         1.991670         114.114279
	 B(3,1,4)         =         1.991584         114.109381
	 O(2,1,3,4)       =         0.720951          41.307457
	 O(3,1,2,4)       =        -0.720985         -41.309383
	 O(4,1,2,3)       =         0.720952          41.307483
2026-01-05:16:03:54,40 INFO     [psi4.optking.history:269] 	Performing BFGS update.
2026-01-05:16:03:54,41 INFO     [psi4.optking.history:280] 	Using 4 previous steps for update.
2026-01-05:16:03:54,43 INFO     [psi4.optking.history:317] 	Steps to be used in Hessian update:  9 8 7 6

2026-01-05:16:03:54,46 INFO     [psi4.optking.history:418] 	Updated Hessian (in au) 
 	   0.456588  -0.046782   0.130394   0.000879   0.003616  -0.000979  -0.005646
	   0.003431  -0.004805
	  -0.046782   0.553301   0.061529   0.001801  -0.001645   0.003266  -0.003460
	   0.005585  -0.004124
	   0.130394   0.061529   0.316382   0.001056   0.001461   0.000336  -0.004017
	   0.003383  -0.003692
	   0.000879   0.001801   0.001056   0.099333  -0.048731  -0.047976  -0.022018
	   0.022347   0.038210
	   0.003616  -0.001645   0.001461  -0.048731   0.098682  -0.047350  -0.021760
	  -0.037975  -0.022325
	  -0.000979   0.003266   0.000336  -0.047976  -0.047350   0.097957   0.037642
	   0.021784  -0.022021
	  -0.005646  -0.003460  -0.004017  -0.022018  -0.021760   0.037642   0.021041
	   0.003247  -0.003352
	   0.003431   0.005585   0.003383   0.022347  -0.037975   0.021784   0.003247
	   0.021203   0.003479
	  -0.004805  -0.004124  -0.003692   0.038210  -0.022325  -0.022021  -0.003352
	   0.003479   0.021272

2026-01-05:16:03:54,47 INFO     [psi4.optking.molsys:944] Projected (PHP) Hessian matrix
	   0.456588  -0.046782   0.130394   0.000879   0.003616  -0.000979  -0.005646
	   0.003431  -0.004805
	  -0.046782   0.553301   0.061529   0.001801  -0.001645   0.003266  -0.003460
	   0.005585  -0.004124
	   0.130394   0.061529   0.316382   0.001056   0.001461   0.000336  -0.004017
	   0.003383  -0.003692
	   0.000879   0.001801   0.001056   0.099333  -0.048731  -0.047976  -0.022018
	   0.022347   0.038210
	   0.003616  -0.001645   0.001461  -0.048731   0.098682  -0.047350  -0.021760
	  -0.037975  -0.022325
	  -0.000979   0.003266   0.000336  -0.047976  -0.047350   0.097957   0.037642
	   0.021784  -0.022021
	  -0.005646  -0.003460  -0.004017  -0.022018  -0.021760   0.037642   0.021041
	   0.003247  -0.003352
	   0.003431   0.005585   0.003383   0.022347  -0.037975   0.021784   0.003247
	   0.021203   0.003479
	  -0.004805  -0.004124  -0.003692   0.038210  -0.022325  -0.022021  -0.003352
	   0.003479   0.021272

2026-01-05:16:03:54,47 INFO     [psi4.optking.opt_helper:182] 
	         Geometry (au)                                       Gradient (au)
   0.0000362480  -0.0001067236   0.0713199647		   0.0002535020  -0.0005365426   0.0013070613
   1.5214303881  -0.8837501100  -0.3780429031		  -0.0007647853   0.0004352583  -0.0003526724
  -1.5267289653  -0.8756563583  -0.3778108598		   0.0005164554   0.0002926427  -0.0004277315
   0.0047232947   1.7611002498  -0.3760458330		  -0.0000051722  -0.0001913585  -0.0005266575

2026-01-05:16:03:54,48 INFO     [psi4.optking.stepAlgorithms:368] 	Current Step Report 
 
	Current energy:       -76.3102742254
	Energy change for the previous step:
		Actual       :        -0.0000537825
		Projected    :        -0.0000369619

2026-01-05:16:03:54,48 INFO     [psi4.optking.stepAlgorithms:371] 	Energy ratio =    1.45508
2026-01-05:16:03:54,49 INFO     [psi4.optking.stepAlgorithms:929] 	Using RFO solution 1.
2026-01-05:16:03:54,49 INFO     [psi4.optking.displace:100] 	Determining Cartesian step for fragment 1.
2026-01-05:16:03:54,55 INFO     [psi4.optking.displace:415] 	Successfully converged to displaced geometry.
2026-01-05:16:03:54,55 INFO     [psi4.optking.displace:416] 	RMS(dx):  3.341e-10 	Max(dx):  9.510e-10 	RMS(dq):  5.103e-05
2026-01-05:16:03:54,57 INFO     [psi4.optking.displace:172] 

	        --- Internal Coordinate Step in ANG or DEG, aJ/ANG or AJ/DEG ---
	-------------------------------------------------------------------------------
	           Coordinate      Previous         Force          Change          New 
	           ----------      --------        ------          ------        ------
	               R(1,2)       0.96092        0.00631        0.00076       0.96168
	               R(1,3)       0.96120        0.00387        0.00031       0.96151
	               R(1,4)       0.96159        0.00046       -0.00069       0.96090
	             B(2,1,3)     114.10945        0.00001        0.33864     114.44809
	             B(2,1,4)     114.11428        0.00001        0.33397     114.44825
	             B(3,1,4)     114.10938        0.00001        0.33691     114.44629
	           O(2,1,3,4)      41.30746       -0.00003       -1.16893      40.13852
	           O(3,1,2,4)     -41.30938        0.00003        1.17011     -40.13927
	           O(4,1,2,3)      41.30748       -0.00003       -1.16827      40.13921
	-------------------------------------------------------------------------------

2026-01-05:16:03:54,57 INFO     [psi4.optking.stepAlgorithms:113] 	|target step| :    0.0368330833
2026-01-05:16:03:54,57 INFO     [psi4.optking.stepAlgorithms:114] 	gradient     :   -0.0006624799
2026-01-05:16:03:54,57 INFO     [psi4.optking.stepAlgorithms:115] 	hessian      :    0.0179610112
2026-01-05:16:03:54,57 INFO     [psi4.optking.stepAlgorithms:113] 	|target step| :    0.0368340377
2026-01-05:16:03:54,57 INFO     [psi4.optking.stepAlgorithms:114] 	gradient     :   -0.0006624845
2026-01-05:16:03:54,57 INFO     [psi4.optking.stepAlgorithms:115] 	hessian      :    0.0179612583
2026-01-05:16:03:54,57 INFO     [psi4.optking.stepAlgorithms:206] 	Norm of achieved step-size    0.0368330833
2026-01-05:16:03:54,57 INFO     [psi4.optking.stepAlgorithms:208] 	Norm of achieved step-size (cart):    0.0131486438
2026-01-05:16:03:54,58 INFO     [psi4.optking.opt_helper:164] Molsys:

	                            ===> Fragment 1 <== 

	 Z (Atomic Numbers)          Masses                          Geom                  
	       8.000000            15.994915         -0.00017041  0.00049955  0.06137206   
	       1.000000             1.007825          1.52537366 -0.88555835 -0.37480848   
	       1.000000             1.007825         -1.53032100 -0.87706114 -0.37451575   
	       1.000000             1.007825          0.00457872  1.76370700 -0.37262747   

	 - Coordinate -           - BOHR/RAD -       - ANG/DEG -
	 R(1,2)           =         1.817316           0.961682
	 R(1,3)           =         1.816995           0.961512
	 R(1,4)           =         1.815841           0.960902
	 B(2,1,3)         =         1.997496         114.448091
	 B(2,1,4)         =         1.997499         114.448245
	 B(3,1,4)         =         1.997465         114.446290
	 O(2,1,3,4)       =         0.700549          40.138522
	 O(3,1,2,4)       =        -0.700562         -40.139272
	 O(4,1,2,3)       =         0.700561          40.139213



	        --- Internal Coordinate Step in ANG or DEG, aJ/ANG or AJ/DEG ---
	-------------------------------------------------------------------------------
	           Coordinate      Previous         Force          Change          New 
	           ----------      --------        ------          ------        ------
	               R(1,2)       0.96092        0.00631        0.00076       0.96168
	               R(1,3)       0.96120        0.00387        0.00031       0.96151
	               R(1,4)       0.96159        0.00046       -0.00069       0.96090
	             B(2,1,3)     114.10945        0.00001        0.33864     114.44809
	             B(2,1,4)     114.11428        0.00001        0.33397     114.44825
	             B(3,1,4)     114.10938        0.00001        0.33691     114.44629
	           O(2,1,3,4)      41.30746       -0.00003       -1.16893      40.13852
	           O(3,1,2,4)     -41.30938        0.00003        1.17011     -40.13927
	           O(4,1,2,3)      41.30748       -0.00003       -1.16827      40.13921
	-------------------------------------------------------------------------------

	                                 ==> Convergence Check <==                                  
    
	Measures of convergence in internal coordinates in au.
    
	Criteria marked as inactive (o), active & met (*), and active & unmet ( ).

	----------------------------------------------------------------------------------------------
	   Step    Total Energy     Delta E     Max Force     RMS Force      Max Disp      RMS Disp   
	----------------------------------------------------------------------------------------------
	  Convergence Criteria     1.00e-06 *    3.00e-04 *             o    1.20e-03 *             o
	----------------------------------------------------------------------------------------------
	    10     -76.31027423   -5.38e-05      7.65e-04      3.66e-04 o    2.04e-02      1.23e-02 o  ~
	----------------------------------------------------------------------------------------------

Next Geometry in Ang 
	Fragment 1 (Ang)

	    O  -0.0000901787   0.0002643512   0.0324766957
	    H   0.8071929762  -0.4686172974  -0.1983401035
	    H  -0.8098109988  -0.4641207679  -0.1981852004
	    H   0.0024229565   0.9333135489  -0.1971859627

2026-01-05:16:03:54,59 INFO     [psi4.optking.convcheck:76] Performing convergence check.
2026-01-05:16:03:54,59 INFO     [psi4.optking.convcheck:282] 
	                                 ==> Convergence Check <==                                  
    
	Measures of convergence in internal coordinates in au.
    
	Criteria marked as inactive (o), active & met (*), and active & unmet ( ).

	----------------------------------------------------------------------------------------------
	   Step    Total Energy     Delta E     Max Force     RMS Force      Max Disp      RMS Disp   
	----------------------------------------------------------------------------------------------
	  Convergence Criteria     1.00e-06 *    3.00e-04 *             o    1.20e-03 *             o
	----------------------------------------------------------------------------------------------
	    10     -76.31027423   -5.38e-05      7.65e-04      3.66e-04 o    2.04e-02      1.23e-02 o  ~
	----------------------------------------------------------------------------------------------


2026-01-05:16:03:54,59 INFO     [psi4.optking.stepAlgorithms:296] 	Convergence check returned False

    Structure for next step:
    Molecular point group: c1
    Full point group: C1

    Geometry (in Angstrom), charge = 1, multiplicity = 1:

    O           -0.000003999313     0.000011529486     0.036625054361
    H            0.807279155552    -0.468870119026    -0.194191744884
    H           -0.809724819451    -0.464373589529    -0.194036841794
    H            0.002509135904     0.933060727243    -0.193037604088


Scratch directory: /tmp/
2026-01-05:16:03:54,76 INFO     [psi4.driver.task_planner:285] PLANNING Atomic:  keywords={'SCF__GUESS': 'READ', 'SCF__INTS_TOLERANCE': 1e-12, 'REFERENCE': 'RHF', 'function_kwargs': {}}
gradient() will perform analytic gradient computation.
2026-01-05:16:03:54,78 INFO     [psi4.driver.driver:636] Compute gradient(): method=hf, basis=6-31g(d,p), molecule=default, nre=14.192651611402514
   => Libint2 <=

    Primary   basis highest AM E, G, H:  6, 6, 3
    Auxiliary basis highest AM E, G, H:  7, 7, 4
    Onebody   basis highest AM E, G, H:  -, -, -
    Solid Harmonics ordering:            Gaussian

*** tstart() called on sugarcube
*** at Mon Jan  5 16:03:54 2026

   => Loading Basis Set <=

    Name: 6-31G(D,P)
    Role: ORBITAL
    Keyword: BASIS
    atoms 1   entry O          line   149 file /opt/tljh/user/envs/pchem2/share/psi4/basis/6-31g_d_p_.gbs 
    atoms 2-4 entry H          line    44 file /opt/tljh/user/envs/pchem2/share/psi4/basis/6-31g_d_p_.gbs 


         ---------------------------------------------------------
                                   SCF
               by Justin Turney, Rob Parrish, Andy Simmonett
                          and Daniel G. A. Smith
                              RHF Reference
                        1 Threads,    500 MiB Core
         ---------------------------------------------------------

  ==> Geometry <==

    Molecular point group: c1
    Full point group: C1

    Geometry (in Angstrom), charge = 1, multiplicity = 1:

       Center              X                  Y                   Z               Mass       
    ------------   -----------------  -----------------  -----------------  -----------------
         O           -0.000003999313     0.000011529486     0.036625054361    15.994914619570
         H            0.807279155552    -0.468870119026    -0.194191744884     1.007825032230
         H           -0.809724819451    -0.464373589529    -0.194036841794     1.007825032230
         H            0.002509135904     0.933060727243    -0.193037604088     1.007825032230

  Running in c1 symmetry.

  Rotational constants: A =     11.61596  B =     11.60539  C =      6.40026 [cm^-1]
  Rotational constants: A = 348237.71201  B = 347920.89328  C = 191875.09553 [MHz]
  Nuclear repulsion =   14.192651611402514

  Charge       = 1
  Multiplicity = 1
  Electrons    = 10
  Nalpha       = 5
  Nbeta        = 5

  ==> Algorithm <==

  SCF Algorithm Type is DF.
  DIIS enabled.
  MOM disabled.
  Fractional occupation disabled.
  Guess Type is READ.
  Energy threshold   = 1.00e-08
  Density threshold  = 1.00e-08
  Integral threshold = 1.00e-12

  ==> Primary Basis <==

  Basis Set: 6-31G(D,P)
    Blend: 6-31G(D,P)
    Number of shells: 15
    Number of basis functions: 30
    Number of Cartesian functions: 30
    Spherical Harmonics?: false
    Max angular momentum: 2

   => Loading Basis Set <=

    Name: (6-31G(D,P) AUX)
    Role: JKFIT
    Keyword: DF_BASIS_SCF
    atoms 1   entry O          line   221 file /opt/tljh/user/envs/pchem2/share/psi4/basis/cc-pvdz-jkfit.gbs 
    atoms 2-4 entry H          line    51 file /opt/tljh/user/envs/pchem2/share/psi4/basis/cc-pvdz-jkfit.gbs 

   => Loading Basis Set <=

    Name: 6-31G(D,P)
    Role: ORBITAL
    Keyword: BASIS
    atoms 1   entry O          line   149 file /opt/tljh/user/envs/pchem2/share/psi4/basis/6-31g_d_p_.gbs 
    atoms 2-4 entry H          line    44 file /opt/tljh/user/envs/pchem2/share/psi4/basis/6-31g_d_p_.gbs 

  Reading orbitals from file /tmp/pyramidal_h30.default.79410.180.npy, no projection.

  ==> Integral Setup <==

  DFHelper Memory: AOs need 0.001 GiB; user supplied 0.366 GiB. 
  Using in-core AOs.

  ==> MemDFJK: Density-Fitted J/K Matrices <==

    J tasked:                   Yes
    K tasked:                   Yes
    wK tasked:                   No
    OpenMP threads:               1
    Memory [MiB]:               375
    Algorithm:                 Core
    Schwarz Cutoff:           1E-12
    Mask sparsity (%):       0.0000
    Fitting Condition:        1E-10

   => Auxiliary Basis Set <=

  Basis Set: (6-31G(D,P) AUX)
    Blend: CC-PVDZ-JKFIT
    Number of shells: 51
    Number of basis functions: 156
    Number of Cartesian functions: 156
    Spherical Harmonics?: false
    Max angular momentum: 3

  Minimum eigenvalue in the overlap matrix is 1.8205591139E-02.
  Reciprocal condition number of the overlap matrix is 3.3705396183E-03.
    Using symmetric orthogonalization.

  ==> Pre-Iterations <==

  SCF Guess: Orbitals guess was supplied from a previous computation.

   -------------------------------------------------------
    Irrep   Nso     Nmo     Nalpha   Nbeta   Ndocc  Nsocc
   -------------------------------------------------------
     A         30      30       5       5       5       0
   -------------------------------------------------------
    Total      30      30       5       5       5       0
   -------------------------------------------------------

  ==> Iterations <==

                           Total Energy        Delta E     RMS |[F,P]|

   @DF-RHF iter   0:   -76.30939855220116   -7.63094e+01   2.18682e-04 
   @DF-RHF iter   1:   -76.31028895979281   -8.90408e-04   5.86494e-05 DIIS
   @DF-RHF iter   2:   -76.31029050624552   -1.54645e-06   1.87769e-05 DIIS
   @DF-RHF iter   3:   -76.31029073257974   -2.26334e-07   9.12080e-06 DIIS
   @DF-RHF iter   4:   -76.31029078584547   -5.32657e-08   1.76215e-06 DIIS
   @DF-RHF iter   5:   -76.31029078972011   -3.87465e-09   2.32442e-07 DIIS
   @DF-RHF iter   6:   -76.31029078978453   -6.44178e-11   3.07125e-08 DIIS
   @DF-RHF iter   7:   -76.31029078978520   -6.67910e-13   3.59152e-09 DIIS
  Energy and wave function converged.


  ==> Post-Iterations <==

    Orbital Energies [Eh]
    ---------------------

    Doubly Occupied:                                                      

       1A    -21.012377     2A     -1.809739     3A     -1.148897  
       4A     -1.148660     5A     -0.950884  

    Virtual:                                                              

       6A     -0.108136     7A      0.003717     8A      0.003923  
       9A      0.645782    10A      0.645934    11A      0.707557  
      12A      0.762420    13A      0.896332    14A      0.896374  
      15A      1.098722    16A      1.342185    17A      1.342249  
      18A      1.981136    19A      2.001439    20A      2.218231  
      21A      2.218933    22A      2.509702    23A      2.510321  
      24A      2.589573    25A      3.036446    26A      3.036994  
      27A      3.309789    28A      3.479230    29A      3.479866  
      30A      4.044000  

    Final Occupation by Irrep:
              A 
    DOCC [     5 ]
    NA   [     5 ]
    NB   [     5 ]

  @DF-RHF Final Energy:   -76.31029078978520

   => Energetics <=

    Nuclear Repulsion Energy =             14.1926516114025141
    One-Electron Energy =                -128.8647703070310513
    Two-Electron Energy =                  38.3618279058433345
    Total Energy =                        -76.3102907897851992

Computation Completed


Properties will be evaluated at   0.000000,   0.000000,   0.000000 [a0]

Properties computed using the SCF density matrix


 Multipole Moments:

 ------------------------------------------------------------------------------------
     Multipole            Electronic (a.u.)      Nuclear  (a.u.)        Total (a.u.)
 ------------------------------------------------------------------------------------

 L = 1.  Multiply by 2.5417464519 to convert [e a0] to [Debye]
 Dipole X            :          0.0000509            0.0000595            0.0001104
 Dipole Y            :         -0.0002156           -0.0001715           -0.0003870
 Dipole Z            :         -0.0544480           -0.5447433           -0.5991914
 Magnitude           :                                                    0.5991915

 ------------------------------------------------------------------------------------

*** tstop() called on sugarcube at Mon Jan  5 16:03:54 2026
Module time:
	user time   =       0.13 seconds =       0.00 minutes
	system time =       0.00 seconds =       0.00 minutes
	total time  =          0 seconds =       0.00 minutes
Total time:
	user time   =      33.99 seconds =       0.57 minutes
	system time =       0.86 seconds =       0.01 minutes
	total time  =         96 seconds =       1.60 minutes

*** tstart() called on sugarcube
*** at Mon Jan  5 16:03:54 2026


         ------------------------------------------------------------
                                   SCF GRAD                          
                          Rob Parrish, Justin Turney,                
                       Andy Simmonett, and Alex Sokolov              
         ------------------------------------------------------------

  ==> Geometry <==

    Molecular point group: c1
    Full point group: C1

    Geometry (in Angstrom), charge = 1, multiplicity = 1:

       Center              X                  Y                   Z               Mass       
    ------------   -----------------  -----------------  -----------------  -----------------
         O           -0.000003999313     0.000011529486     0.036625054361    15.994914619570
         H            0.807279155552    -0.468870119026    -0.194191744884     1.007825032230
         H           -0.809724819451    -0.464373589529    -0.194036841794     1.007825032230
         H            0.002509135904     0.933060727243    -0.193037604088     1.007825032230

  Nuclear repulsion =   14.192651611402514

  ==> Basis Set <==

  Basis Set: 6-31G(D,P)
    Blend: 6-31G(D,P)
    Number of shells: 15
    Number of basis functions: 30
    Number of Cartesian functions: 30
    Spherical Harmonics?: false
    Max angular momentum: 2

  ==> DFJKGrad: Density-Fitted SCF Gradients <==

    Gradient:                    1
    J tasked:                  Yes
    K tasked:                  Yes
    wK tasked:                  No
    OpenMP threads:              1
    Integrals threads:           1
    Memory [MiB]:              375
    Schwarz Cutoff:          1E-12
    Fitting Condition:       1E-10

   => Auxiliary Basis Set <=

  Basis Set: (6-31G(D,P) AUX)
    Blend: CC-PVDZ-JKFIT
    Number of shells: 51
    Number of basis functions: 156
    Number of Cartesian functions: 156
    Spherical Harmonics?: false
    Max angular momentum: 3


  -Total Gradient:
     Atom            X                  Y                   Z
    ------   -----------------  -----------------  -----------------
       1       -0.000143705197     0.000705330177     0.000658925608
       2        0.000167379833    -0.000093686101    -0.000298272203
       3       -0.000018733011    -0.000003417213    -0.000256722079
       4       -0.000004941625    -0.000608226863    -0.000103931326


*** tstop() called on sugarcube at Mon Jan  5 16:03:54 2026
Module time:
	user time   =       0.02 seconds =       0.00 minutes
	system time =       0.00 seconds =       0.00 minutes
	total time  =          0 seconds =       0.00 minutes
Total time:
	user time   =      34.01 seconds =       0.57 minutes
	system time =       0.86 seconds =       0.01 minutes
	total time  =         96 seconds =       1.60 minutes
2026-01-05:16:03:54,238 INFO     [psi4.driver.driver:639] Return gradient(): -76.3102907897852
2026-01-05:16:03:54,238 INFO     [psi4.driver.driver:640] [[-0.00014371  0.00070533  0.00065893]
 [ 0.00016738 -0.00009369 -0.00029827]
 [-0.00001873 -0.00000342 -0.00025672]
 [-0.00000494 -0.00060823 -0.00010393]]

    			-----------------------------------------

    			 OPTKING 3.0: for geometry optimizations 

    			     By R.A. King, Bethel University     

    			        with contributions from          

    			    A.V. Copan, J. Cayton, A. Heide      

    			-----------------------------------------

    
	                            ===> Fragment 1 <== 

	 Z (Atomic Numbers)          Masses                          Geom                  
	       8.000000            15.994915         -0.00000756  0.00002179  0.06921132   
	       1.000000             1.007825          1.52553651 -0.88603611 -0.36696921   
	       1.000000             1.007825         -1.53015815 -0.87753890 -0.36667649   
	       1.000000             1.007825          0.00474158  1.76322923 -0.36478820   

	 - Coordinate -           - BOHR/RAD -       - ANG/DEG -
	 R(1,2)           =         1.817316           0.961682
	 R(1,3)           =         1.816995           0.961512
	 R(1,4)           =         1.815841           0.960902
	 B(2,1,3)         =         1.997496         114.448091
	 B(2,1,4)         =         1.997499         114.448245
	 B(3,1,4)         =         1.997465         114.446290
	 O(2,1,3,4)       =         0.700549          40.138522
	 O(3,1,2,4)       =        -0.700562         -40.139272
	 O(4,1,2,3)       =         0.700561          40.139213
2026-01-05:16:03:54,242 INFO     [psi4.optking.history:269] 	Performing BFGS update.
2026-01-05:16:03:54,243 INFO     [psi4.optking.history:280] 	Using 4 previous steps for update.
2026-01-05:16:03:54,245 INFO     [psi4.optking.history:317] 	Steps to be used in Hessian update:  10 9 8 7

2026-01-05:16:03:54,247 INFO     [psi4.optking.history:418] 	Updated Hessian (in au) 
 	   0.484541  -0.030589   0.110201   0.002563   0.004696   0.000188  -0.006121
	   0.004003  -0.005078
	  -0.030589   0.558814   0.054090   0.002363  -0.001363   0.003554  -0.002880
	   0.005026  -0.003443
	   0.110201   0.054090   0.330403   0.002125   0.002699   0.001803  -0.005433
	   0.004935  -0.005266
	   0.002563   0.002363   0.002125   0.099984  -0.049642  -0.048903  -0.020755
	   0.021047   0.037796
	   0.004696  -0.001363   0.002699  -0.049642   0.099377  -0.048243  -0.020555
	  -0.037521  -0.021102
	   0.000188   0.003554   0.001803  -0.048903  -0.048243   0.098583   0.037241
	   0.020503  -0.020760
	  -0.006121  -0.002880  -0.005433  -0.020755  -0.020555   0.037241   0.018967
	   0.003781  -0.003843
	   0.004003   0.005026   0.004935   0.021047  -0.037521   0.020503   0.003781
	   0.019027   0.003996
	  -0.005078  -0.003443  -0.005266   0.037796  -0.021102  -0.020760  -0.003843
	   0.003996   0.019183

2026-01-05:16:03:54,249 INFO     [psi4.optking.molsys:944] Projected (PHP) Hessian matrix
	   0.484541  -0.030589   0.110201   0.002563   0.004696   0.000188  -0.006121
	   0.004003  -0.005078
	  -0.030589   0.558814   0.054090   0.002363  -0.001363   0.003554  -0.002880
	   0.005026  -0.003443
	   0.110201   0.054090   0.330403   0.002125   0.002699   0.001803  -0.005433
	   0.004935  -0.005266
	   0.002563   0.002363   0.002125   0.099984  -0.049642  -0.048903  -0.020755
	   0.021047   0.037796
	   0.004696  -0.001363   0.002699  -0.049642   0.099377  -0.048243  -0.020555
	  -0.037521  -0.021102
	   0.000188   0.003554   0.001803  -0.048903  -0.048243   0.098583   0.037241
	   0.020503  -0.020760
	  -0.006121  -0.002880  -0.005433  -0.020755  -0.020555   0.037241   0.018967
	   0.003781  -0.003843
	   0.004003   0.005026   0.004935   0.021047  -0.037521   0.020503   0.003781
	   0.019027   0.003996
	  -0.005078  -0.003443  -0.005266   0.037796  -0.021102  -0.020760  -0.003843
	   0.003996   0.019183

2026-01-05:16:03:54,249 INFO     [psi4.optking.opt_helper:182] 
	         Geometry (au)                                       Gradient (au)
  -0.0000075576   0.0000217876   0.0692113221		  -0.0001437052   0.0007053302   0.0006589256
   1.5255365108  -0.8860361134  -0.3669692137		   0.0001673798  -0.0000936861  -0.0002982722
  -1.5301581457  -0.8775389041  -0.3666764892		  -0.0000187330  -0.0000034172  -0.0002567221
   0.0047415797   1.7632292329  -0.3647882036		  -0.0000049416  -0.0006082269  -0.0001039313

2026-01-05:16:03:54,250 INFO     [psi4.optking.stepAlgorithms:368] 	Current Step Report 
 
	Current energy:       -76.3102907898
	Energy change for the previous step:
		Actual       :        -0.0000165644
		Projected    :        -0.0000122010

2026-01-05:16:03:54,250 INFO     [psi4.optking.stepAlgorithms:371] 	Energy ratio =    1.35763
2026-01-05:16:03:54,250 INFO     [psi4.optking.stepAlgorithms:929] 	Using RFO solution 1.
2026-01-05:16:03:54,251 INFO     [psi4.optking.displace:100] 	Determining Cartesian step for fragment 1.
2026-01-05:16:03:54,256 INFO     [psi4.optking.displace:415] 	Successfully converged to displaced geometry.
2026-01-05:16:03:54,256 INFO     [psi4.optking.displace:416] 	RMS(dx):  4.598e-11 	Max(dx):  1.305e-10 	RMS(dq):  1.777e-05
2026-01-05:16:03:54,258 INFO     [psi4.optking.displace:172] 

	        --- Internal Coordinate Step in ANG or DEG, aJ/ANG or AJ/DEG ---
	-------------------------------------------------------------------------------
	           Coordinate      Previous         Force          Change          New 
	           ----------      --------        ------          ------        ------
	               R(1,2)       0.96168       -0.00212       -0.00073       0.96095
	               R(1,3)       0.96151       -0.00065       -0.00034       0.96117
	               R(1,4)       0.96090        0.00466        0.00087       0.96177
	             B(2,1,3)     114.44809        0.00000        0.19270     114.64079
	             B(2,1,4)     114.44825        0.00000        0.19358     114.64183
	             B(3,1,4)     114.44629        0.00000        0.19556     114.64185
	           O(2,1,3,4)      40.13852       -0.00001       -0.69038      39.44814
	           O(3,1,2,4)     -40.13927        0.00001        0.69114     -39.44814
	           O(4,1,2,3)      40.13921       -0.00001       -0.69147      39.44775
	-------------------------------------------------------------------------------

2026-01-05:16:03:54,258 INFO     [psi4.optking.stepAlgorithms:113] 	|target step| :    0.0218108421
2026-01-05:16:03:54,258 INFO     [psi4.optking.stepAlgorithms:114] 	gradient     :   -0.0003336855
2026-01-05:16:03:54,258 INFO     [psi4.optking.stepAlgorithms:115] 	hessian      :    0.0152916353
2026-01-05:16:03:54,259 INFO     [psi4.optking.stepAlgorithms:113] 	|target step| :    0.0218110376
2026-01-05:16:03:54,259 INFO     [psi4.optking.stepAlgorithms:114] 	gradient     :   -0.0003336858
2026-01-05:16:03:54,259 INFO     [psi4.optking.stepAlgorithms:115] 	hessian      :    0.0152916629
2026-01-05:16:03:54,259 INFO     [psi4.optking.stepAlgorithms:206] 	Norm of achieved step-size    0.0218108421
2026-01-05:16:03:54,259 INFO     [psi4.optking.stepAlgorithms:208] 	Norm of achieved step-size (cart):    0.0077045690
2026-01-05:16:03:54,260 INFO     [psi4.optking.opt_helper:164] Molsys:

	                            ===> Fragment 1 <== 

	 Z (Atomic Numbers)          Masses                          Geom                  
	       8.000000            15.994915          0.00014820 -0.00066503  0.06329927   
	       1.000000             1.007825          1.52617406 -0.88695518 -0.36492078   
	       1.000000             1.007825         -1.53112223 -0.87882674 -0.36467291   
	       1.000000             1.007825          0.00491236  1.76612296 -0.36292816   

	 - Coordinate -           - BOHR/RAD -       - ANG/DEG -
	 R(1,2)           =         1.815940           0.960954
	 R(1,3)           =         1.816347           0.961170
	 R(1,4)           =         1.817480           0.961769
	 B(2,1,3)         =         2.000859         114.640792
	 B(2,1,4)         =         2.000877         114.641825
	 B(3,1,4)         =         2.000878         114.641847
	 O(2,1,3,4)       =         0.688500          39.448145
	 O(3,1,2,4)       =        -0.688500         -39.448136
	 O(4,1,2,3)       =         0.688493          39.447746



	        --- Internal Coordinate Step in ANG or DEG, aJ/ANG or AJ/DEG ---
	-------------------------------------------------------------------------------
	           Coordinate      Previous         Force          Change          New 
	           ----------      --------        ------          ------        ------
	               R(1,2)       0.96168       -0.00212       -0.00073       0.96095
	               R(1,3)       0.96151       -0.00065       -0.00034       0.96117
	               R(1,4)       0.96090        0.00466        0.00087       0.96177
	             B(2,1,3)     114.44809        0.00000        0.19270     114.64079
	             B(2,1,4)     114.44825        0.00000        0.19358     114.64183
	             B(3,1,4)     114.44629        0.00000        0.19556     114.64185
	           O(2,1,3,4)      40.13852       -0.00001       -0.69038      39.44814
	           O(3,1,2,4)     -40.13927        0.00001        0.69114     -39.44814
	           O(4,1,2,3)      40.13921       -0.00001       -0.69147      39.44775
	-------------------------------------------------------------------------------

	                                 ==> Convergence Check <==                                  
    
	Measures of convergence in internal coordinates in au.
    
	Criteria marked as inactive (o), active & met (*), and active & unmet ( ).

	----------------------------------------------------------------------------------------------
	   Step    Total Energy     Delta E     Max Force     RMS Force      Max Disp      RMS Disp   
	----------------------------------------------------------------------------------------------
	  Convergence Criteria     1.00e-06 *    3.00e-04 *             o    1.20e-03 *             o
	----------------------------------------------------------------------------------------------
	    11     -76.31029079   -1.66e-05      5.66e-04      2.28e-04 o    1.21e-02      7.27e-03 o  ~
	----------------------------------------------------------------------------------------------

Next Geometry in Ang 
	Fragment 1 (Ang)

	    O   0.0000784223  -0.0003519198   0.0334965326
	    H   0.8076165332  -0.4693564682  -0.1931077620
	    H  -0.8102349902  -0.4650550833  -0.1929765940
	    H   0.0025995074   0.9345920195  -0.1920533130

2026-01-05:16:03:54,260 INFO     [psi4.optking.convcheck:76] Performing convergence check.
2026-01-05:16:03:54,260 INFO     [psi4.optking.convcheck:282] 
	                                 ==> Convergence Check <==                                  
    
	Measures of convergence in internal coordinates in au.
    
	Criteria marked as inactive (o), active & met (*), and active & unmet ( ).

	----------------------------------------------------------------------------------------------
	   Step    Total Energy     Delta E     Max Force     RMS Force      Max Disp      RMS Disp   
	----------------------------------------------------------------------------------------------
	  Convergence Criteria     1.00e-06 *    3.00e-04 *             o    1.20e-03 *             o
	----------------------------------------------------------------------------------------------
	    11     -76.31029079   -1.66e-05      5.66e-04      2.28e-04 o    1.21e-02      7.27e-03 o  ~
	----------------------------------------------------------------------------------------------


2026-01-05:16:03:54,260 INFO     [psi4.optking.stepAlgorithms:296] 	Convergence check returned False

    Structure for next step:
    Molecular point group: c1
    Full point group: C1

    Geometry (in Angstrom), charge = 1, multiplicity = 1:

    O            0.000013471485    -0.000065510324     0.035961906198
    H            0.807551582289    -0.469070058746    -0.190642388376
    H           -0.810299941046    -0.464768673844    -0.190511220370
    H            0.002534556514     0.934878428975    -0.189587939431


Scratch directory: /tmp/
2026-01-05:16:03:54,277 INFO     [psi4.driver.task_planner:285] PLANNING Atomic:  keywords={'SCF__GUESS': 'READ', 'SCF__INTS_TOLERANCE': 1e-12, 'REFERENCE': 'RHF', 'function_kwargs': {}}
gradient() will perform analytic gradient computation.
2026-01-05:16:03:54,279 INFO     [psi4.driver.driver:636] Compute gradient(): method=hf, basis=6-31g(d,p), molecule=default, nre=14.19258758310107
   => Libint2 <=

    Primary   basis highest AM E, G, H:  6, 6, 3
    Auxiliary basis highest AM E, G, H:  7, 7, 4
    Onebody   basis highest AM E, G, H:  -, -, -
    Solid Harmonics ordering:            Gaussian

*** tstart() called on sugarcube
*** at Mon Jan  5 16:03:54 2026

   => Loading Basis Set <=

    Name: 6-31G(D,P)
    Role: ORBITAL
    Keyword: BASIS
    atoms 1   entry O          line   149 file /opt/tljh/user/envs/pchem2/share/psi4/basis/6-31g_d_p_.gbs 
    atoms 2-4 entry H          line    44 file /opt/tljh/user/envs/pchem2/share/psi4/basis/6-31g_d_p_.gbs 


         ---------------------------------------------------------
                                   SCF
               by Justin Turney, Rob Parrish, Andy Simmonett
                          and Daniel G. A. Smith
                              RHF Reference
                        1 Threads,    500 MiB Core
         ---------------------------------------------------------

  ==> Geometry <==

    Molecular point group: c1
    Full point group: C1

    Geometry (in Angstrom), charge = 1, multiplicity = 1:

       Center              X                  Y                   Z               Mass       
    ------------   -----------------  -----------------  -----------------  -----------------
         O            0.000013471485    -0.000065510324     0.035961906198    15.994914619570
         H            0.807551582289    -0.469070058746    -0.190642388376     1.007825032230
         H           -0.810299941046    -0.464768673844    -0.190511220370     1.007825032230
         H            0.002534556514     0.934878428975    -0.189587939431     1.007825032230

  Running in c1 symmetry.

  Rotational constants: A =     11.63343  B =     11.62254  C =      6.38726 [cm^-1]
  Rotational constants: A = 348761.54038  B = 348434.85203  C = 191485.21064 [MHz]
  Nuclear repulsion =   14.192587583101069

  Charge       = 1
  Multiplicity = 1
  Electrons    = 10
  Nalpha       = 5
  Nbeta        = 5

  ==> Algorithm <==

  SCF Algorithm Type is DF.
  DIIS enabled.
  MOM disabled.
  Fractional occupation disabled.
  Guess Type is READ.
  Energy threshold   = 1.00e-08
  Density threshold  = 1.00e-08
  Integral threshold = 1.00e-12

  ==> Primary Basis <==

  Basis Set: 6-31G(D,P)
    Blend: 6-31G(D,P)
    Number of shells: 15
    Number of basis functions: 30
    Number of Cartesian functions: 30
    Spherical Harmonics?: false
    Max angular momentum: 2

   => Loading Basis Set <=

    Name: (6-31G(D,P) AUX)
    Role: JKFIT
    Keyword: DF_BASIS_SCF
    atoms 1   entry O          line   221 file /opt/tljh/user/envs/pchem2/share/psi4/basis/cc-pvdz-jkfit.gbs 
    atoms 2-4 entry H          line    51 file /opt/tljh/user/envs/pchem2/share/psi4/basis/cc-pvdz-jkfit.gbs 

   => Loading Basis Set <=

    Name: 6-31G(D,P)
    Role: ORBITAL
    Keyword: BASIS
    atoms 1   entry O          line   149 file /opt/tljh/user/envs/pchem2/share/psi4/basis/6-31g_d_p_.gbs 
    atoms 2-4 entry H          line    44 file /opt/tljh/user/envs/pchem2/share/psi4/basis/6-31g_d_p_.gbs 

  Reading orbitals from file /tmp/pyramidal_h30.default.79410.180.npy, no projection.

  ==> Integral Setup <==

  DFHelper Memory: AOs need 0.001 GiB; user supplied 0.366 GiB. 
  Using in-core AOs.

  ==> MemDFJK: Density-Fitted J/K Matrices <==

    J tasked:                   Yes
    K tasked:                   Yes
    wK tasked:                   No
    OpenMP threads:               1
    Memory [MiB]:               375
    Algorithm:                 Core
    Schwarz Cutoff:           1E-12
    Mask sparsity (%):       0.0000
    Fitting Condition:        1E-10

   => Auxiliary Basis Set <=

  Basis Set: (6-31G(D,P) AUX)
    Blend: CC-PVDZ-JKFIT
    Number of shells: 51
    Number of basis functions: 156
    Number of Cartesian functions: 156
    Spherical Harmonics?: false
    Max angular momentum: 3

  Minimum eigenvalue in the overlap matrix is 1.8211808298E-02.
  Reciprocal condition number of the overlap matrix is 3.3724137181E-03.
    Using symmetric orthogonalization.

  ==> Pre-Iterations <==

  SCF Guess: Orbitals guess was supplied from a previous computation.

   -------------------------------------------------------
    Irrep   Nso     Nmo     Nalpha   Nbeta   Ndocc  Nsocc
   -------------------------------------------------------
     A         30      30       5       5       5       0
   -------------------------------------------------------
    Total      30      30       5       5       5       0
   -------------------------------------------------------

  ==> Iterations <==

                           Total Energy        Delta E     RMS |[F,P]|

   @DF-RHF iter   0:   -76.31021220147622   -7.63102e+01   1.46413e-04 
   @DF-RHF iter   1:   -76.31029398528491   -8.17838e-05   3.36894e-05 DIIS
   @DF-RHF iter   2:   -76.31029452897529   -5.43690e-07   9.73258e-06 DIIS
   @DF-RHF iter   3:   -76.31029460496876   -7.59935e-08   4.75755e-06 DIIS
   @DF-RHF iter   4:   -76.31029461949248   -1.45237e-08   1.07283e-06 DIIS
   @DF-RHF iter   5:   -76.31029462077640   -1.28392e-09   1.49166e-07 DIIS
   @DF-RHF iter   6:   -76.31029462080339   -2.69864e-11   1.91107e-08 DIIS
   @DF-RHF iter   7:   -76.31029462080377   -3.83693e-13   2.49449e-09 DIIS
  Energy and wave function converged.


  ==> Post-Iterations <==

    Orbital Energies [Eh]
    ---------------------

    Doubly Occupied:                                                      

       1A    -21.012055     2A     -1.809361     3A     -1.149086  
       4A     -1.148841     5A     -0.950284  

    Virtual:                                                              

       6A     -0.108078     7A      0.003901     8A      0.004113  
       9A      0.646435    10A      0.646594    11A      0.706256  
      12A      0.762505    13A      0.896361    14A      0.896403  
      15A      1.098147    16A      1.343194    17A      1.343260  
      18A      1.984850    19A      2.000392    20A      2.216404  
      21A      2.217127    22A      2.513877    23A      2.514512  
      24A      2.583278    25A      3.034623    26A      3.035177  
      27A      3.311217    28A      3.480027    29A      3.480662  
      30A      4.046847  

    Final Occupation by Irrep:
              A 
    DOCC [     5 ]
    NA   [     5 ]
    NB   [     5 ]

  @DF-RHF Final Energy:   -76.31029462080377

   => Energetics <=

    Nuclear Repulsion Energy =             14.1925875831010693
    One-Electron Energy =                -128.8665107519000799
    Two-Electron Energy =                  38.3636285479952335
    Total Energy =                        -76.3102946208037736

Computation Completed


Properties will be evaluated at   0.000000,   0.000000,   0.000000 [a0]

Properties computed using the SCF density matrix


 Multipole Moments:

 ------------------------------------------------------------------------------------
     Multipole            Electronic (a.u.)      Nuclear  (a.u.)        Total (a.u.)
 ------------------------------------------------------------------------------------

 L = 1.  Multiply by 2.5417464519 to convert [e a0] to [Debye]
 Dipole X            :         -0.0000727           -0.0002004           -0.0002730
 Dipole Y            :          0.0003019            0.0009744            0.0012763
 Dipole Z            :         -0.0539780           -0.5348800           -0.5888580
 Magnitude           :                                                    0.5888595

 ------------------------------------------------------------------------------------

*** tstop() called on sugarcube at Mon Jan  5 16:03:54 2026
Module time:
	user time   =       0.11 seconds =       0.00 minutes
	system time =       0.00 seconds =       0.00 minutes
	total time  =          0 seconds =       0.00 minutes
Total time:
	user time   =      34.17 seconds =       0.57 minutes
	system time =       0.86 seconds =       0.01 minutes
	total time  =         96 seconds =       1.60 minutes

*** tstart() called on sugarcube
*** at Mon Jan  5 16:03:54 2026


         ------------------------------------------------------------
                                   SCF GRAD                          
                          Rob Parrish, Justin Turney,                
                       Andy Simmonett, and Alex Sokolov              
         ------------------------------------------------------------

  ==> Geometry <==

    Molecular point group: c1
    Full point group: C1

    Geometry (in Angstrom), charge = 1, multiplicity = 1:

       Center              X                  Y                   Z               Mass       
    ------------   -----------------  -----------------  -----------------  -----------------
         O            0.000013471485    -0.000065510324     0.035961906198    15.994914619570
         H            0.807551582289    -0.469070058746    -0.190642388376     1.007825032230
         H           -0.810299941046    -0.464768673844    -0.190511220370     1.007825032230
         H            0.002534556514     0.934878428975    -0.189587939431     1.007825032230

  Nuclear repulsion =   14.192587583101069

  ==> Basis Set <==

  Basis Set: 6-31G(D,P)
    Blend: 6-31G(D,P)
    Number of shells: 15
    Number of basis functions: 30
    Number of Cartesian functions: 30
    Spherical Harmonics?: false
    Max angular momentum: 2

  ==> DFJKGrad: Density-Fitted SCF Gradients <==

    Gradient:                    1
    J tasked:                  Yes
    K tasked:                  Yes
    wK tasked:                  No
    OpenMP threads:              1
    Integrals threads:           1
    Memory [MiB]:              375
    Schwarz Cutoff:          1E-12
    Fitting Condition:       1E-10

   => Auxiliary Basis Set <=

  Basis Set: (6-31G(D,P) AUX)
    Blend: CC-PVDZ-JKFIT
    Number of shells: 51
    Number of basis functions: 156
    Number of Cartesian functions: 156
    Spherical Harmonics?: false
    Max angular momentum: 3


  -Total Gradient:
     Atom            X                  Y                   Z
    ------   -----------------  -----------------  -----------------
       1        0.000188259999    -0.000717294525     0.000202702621
       2       -0.000342724520     0.000194168918     0.000016818733
       3        0.000152182967     0.000081154366    -0.000036482830
       4        0.000002281554     0.000441971242    -0.000183038525


*** tstop() called on sugarcube at Mon Jan  5 16:03:54 2026
Module time:
	user time   =       0.02 seconds =       0.00 minutes
	system time =       0.00 seconds =       0.00 minutes
	total time  =          0 seconds =       0.00 minutes
Total time:
	user time   =      34.20 seconds =       0.57 minutes
	system time =       0.86 seconds =       0.01 minutes
	total time  =         96 seconds =       1.60 minutes
2026-01-05:16:03:54,427 INFO     [psi4.driver.driver:639] Return gradient(): -76.31029462080377
2026-01-05:16:03:54,427 INFO     [psi4.driver.driver:640] [[ 0.00018826 -0.00071729  0.00020270]
 [-0.00034272  0.00019417  0.00001682]
 [ 0.00015218  0.00008115 -0.00003648]
 [ 0.00000228  0.00044197 -0.00018304]]

    			-----------------------------------------

    			 OPTKING 3.0: for geometry optimizations 

    			     By R.A. King, Bethel University     

    			        with contributions from          

    			    A.V. Copan, J. Cayton, A. Heide      

    			-----------------------------------------

    
	                            ===> Fragment 1 <== 

	 Z (Atomic Numbers)          Masses                          Geom                  
	       8.000000            15.994915          0.00002546 -0.00012380  0.06795815   
	       1.000000             1.007825          1.52605132 -0.88641394 -0.36026190   
	       1.000000             1.007825         -1.53124497 -0.87828551 -0.36001403   
	       1.000000             1.007825          0.00478962  1.76666419 -0.35826928   

	 - Coordinate -           - BOHR/RAD -       - ANG/DEG -
	 R(1,2)           =         1.815940           0.960954
	 R(1,3)           =         1.816347           0.961170
	 R(1,4)           =         1.817480           0.961769
	 B(2,1,3)         =         2.000859         114.640792
	 B(2,1,4)         =         2.000877         114.641825
	 B(3,1,4)         =         2.000878         114.641847
	 O(2,1,3,4)       =         0.688500          39.448145
	 O(3,1,2,4)       =        -0.688500         -39.448136
	 O(4,1,2,3)       =         0.688493          39.447746
2026-01-05:16:03:54,431 INFO     [psi4.optking.history:269] 	Performing BFGS update.
2026-01-05:16:03:54,432 INFO     [psi4.optking.history:280] 	Using 4 previous steps for update.
2026-01-05:16:03:54,434 INFO     [psi4.optking.history:317] 	Steps to be used in Hessian update:  11 10 9 8

2026-01-05:16:03:54,436 INFO     [psi4.optking.history:418] 	Updated Hessian (in au) 
 	   0.531279  -0.000544   0.035068   0.001545   0.002596  -0.002233  -0.004187
	   0.002219  -0.002687
	  -0.000544   0.570446   0.019384   0.002982  -0.001334   0.003451  -0.003681
	   0.005749  -0.003969
	   0.035068   0.019384   0.402442   0.000122   0.001992   0.001440  -0.003567
	   0.003376  -0.004076
	   0.001545   0.002982   0.000122   0.100494  -0.050155  -0.049392  -0.020047
	   0.020349   0.037410
	   0.002596  -0.001334   0.001992  -0.050155   0.099852  -0.048735  -0.019837
	  -0.037120  -0.020386
	  -0.002233   0.003451   0.001440  -0.049392  -0.048735   0.099095   0.036869
	   0.019809  -0.020056
	  -0.004187  -0.003681  -0.003567  -0.020047  -0.019837   0.036869   0.017694
	   0.004024  -0.004116
	   0.002219   0.005749   0.003376   0.020349  -0.037120   0.019809   0.004024
	   0.017824   0.004222
	  -0.002687  -0.003969  -0.004076   0.037410  -0.020386  -0.020056  -0.004116
	   0.004222   0.017922

2026-01-05:16:03:54,438 INFO     [psi4.optking.molsys:944] Projected (PHP) Hessian matrix
	   0.531279  -0.000544   0.035068   0.001545   0.002596  -0.002233  -0.004187
	   0.002219  -0.002687
	  -0.000544   0.570446   0.019384   0.002982  -0.001334   0.003451  -0.003681
	   0.005749  -0.003969
	   0.035068   0.019384   0.402442   0.000122   0.001992   0.001440  -0.003567
	   0.003376  -0.004076
	   0.001545   0.002982   0.000122   0.100494  -0.050155  -0.049392  -0.020047
	   0.020349   0.037410
	   0.002596  -0.001334   0.001992  -0.050155   0.099852  -0.048735  -0.019837
	  -0.037120  -0.020386
	  -0.002233   0.003451   0.001440  -0.049392  -0.048735   0.099095   0.036869
	   0.019809  -0.020056
	  -0.004187  -0.003681  -0.003567  -0.020047  -0.019837   0.036869   0.017694
	   0.004024  -0.004116
	   0.002219   0.005749   0.003376   0.020349  -0.037120   0.019809   0.004024
	   0.017824   0.004222
	  -0.002687  -0.003969  -0.004076   0.037410  -0.020386  -0.020056  -0.004116
	   0.004222   0.017922

2026-01-05:16:03:54,438 INFO     [psi4.optking.opt_helper:182] 
	         Geometry (au)                                       Gradient (au)
   0.0000254574  -0.0001237966   0.0679581537		   0.0001882600  -0.0007172945   0.0002027026
   1.5260513227  -0.8864139447  -0.3602619019		  -0.0003427245   0.0001941689   0.0000168187
  -1.5312449681  -0.8782855053  -0.3600140303		   0.0001521830   0.0000811544  -0.0000364828
   0.0047896177   1.7666641914  -0.3582692822		   0.0000022816   0.0004419712  -0.0001830385

2026-01-05:16:03:54,439 INFO     [psi4.optking.stepAlgorithms:368] 	Current Step Report 
 
	Current energy:       -76.3102946208
	Energy change for the previous step:
		Actual       :        -0.0000038310
		Projected    :        -0.0000036390

2026-01-05:16:03:54,439 INFO     [psi4.optking.stepAlgorithms:371] 	Energy ratio =    1.05276
2026-01-05:16:03:54,439 INFO     [psi4.optking.stepAlgorithms:929] 	Using RFO solution 1.
2026-01-05:16:03:54,440 INFO     [psi4.optking.displace:100] 	Determining Cartesian step for fragment 1.
2026-01-05:16:03:54,445 INFO     [psi4.optking.displace:415] 	Successfully converged to displaced geometry.
2026-01-05:16:03:54,445 INFO     [psi4.optking.displace:416] 	RMS(dx):  1.160e-12 	Max(dx):  3.146e-12 	RMS(dq):  2.648e-06
2026-01-05:16:03:54,447 INFO     [psi4.optking.displace:172] 

	        --- Internal Coordinate Step in ANG or DEG, aJ/ANG or AJ/DEG ---
	-------------------------------------------------------------------------------
	           Coordinate      Previous         Force          Change          New 
	           ----------      --------        ------          ------        ------
	               R(1,2)       0.96095        0.00319        0.00039       0.96134
	               R(1,3)       0.96117        0.00131        0.00011       0.96128
	               R(1,4)       0.96177       -0.00389       -0.00073       0.96103
	             B(2,1,3)     114.64079        0.00000        0.07505     114.71584
	             B(2,1,4)     114.64183        0.00000        0.07334     114.71517
	             B(3,1,4)     114.64185        0.00000        0.07344     114.71529
	           O(2,1,3,4)      39.44814       -0.00000       -0.26713      39.18102
	           O(3,1,2,4)     -39.44814        0.00000        0.26717     -39.18097
	           O(4,1,2,3)      39.44775       -0.00000       -0.26652      39.18122
	-------------------------------------------------------------------------------

2026-01-05:16:03:54,447 INFO     [psi4.optking.stepAlgorithms:113] 	|target step| :    0.0085218777
2026-01-05:16:03:54,447 INFO     [psi4.optking.stepAlgorithms:114] 	gradient     :   -0.0001971129
2026-01-05:16:03:54,447 INFO     [psi4.optking.stepAlgorithms:115] 	hessian      :    0.0231285211
2026-01-05:16:03:54,447 INFO     [psi4.optking.stepAlgorithms:113] 	|target step| :    0.0085218888
2026-01-05:16:03:54,447 INFO     [psi4.optking.stepAlgorithms:114] 	gradient     :   -0.0001971128
2026-01-05:16:03:54,447 INFO     [psi4.optking.stepAlgorithms:115] 	hessian      :    0.0231284959
2026-01-05:16:03:54,448 INFO     [psi4.optking.stepAlgorithms:206] 	Norm of achieved step-size    0.0085218777
2026-01-05:16:03:54,448 INFO     [psi4.optking.stepAlgorithms:208] 	Norm of achieved step-size (cart):    0.0030979340
2026-01-05:16:03:54,449 INFO     [psi4.optking.opt_helper:164] Molsys:

	                            ===> Fragment 1 <== 

	 Z (Atomic Numbers)          Masses                          Geom                  
	       8.000000            15.994915         -0.00009488  0.00036011  0.06566120   
	       1.000000             1.007825          1.52720309 -0.88669302 -0.35955200   
	       1.000000             1.007825         -1.53216834 -0.87830243 -0.35926999   
	       1.000000             1.007825          0.00468156  1.76647628 -0.35742628   

	 - Coordinate -           - BOHR/RAD -       - ANG/DEG -
	 R(1,2)           =         1.816675           0.961343
	 R(1,3)           =         1.816553           0.961278
	 R(1,4)           =         1.816093           0.961035
	 B(2,1,3)         =         2.002169         114.715837
	 B(2,1,4)         =         2.002157         114.715167
	 B(3,1,4)         =         2.002160         114.715291
	 O(2,1,3,4)       =         0.683838          39.181016
	 O(3,1,2,4)       =        -0.683837         -39.180970
	 O(4,1,2,3)       =         0.683841          39.181221



	        --- Internal Coordinate Step in ANG or DEG, aJ/ANG or AJ/DEG ---
	-------------------------------------------------------------------------------
	           Coordinate      Previous         Force          Change          New 
	           ----------      --------        ------          ------        ------
	               R(1,2)       0.96095        0.00319        0.00039       0.96134
	               R(1,3)       0.96117        0.00131        0.00011       0.96128
	               R(1,4)       0.96177       -0.00389       -0.00073       0.96103
	             B(2,1,3)     114.64079        0.00000        0.07505     114.71584
	             B(2,1,4)     114.64183        0.00000        0.07334     114.71517
	             B(3,1,4)     114.64185        0.00000        0.07344     114.71529
	           O(2,1,3,4)      39.44814       -0.00000       -0.26713      39.18102
	           O(3,1,2,4)     -39.44814        0.00000        0.26717     -39.18097
	           O(4,1,2,3)      39.44775       -0.00000       -0.26652      39.18122
	-------------------------------------------------------------------------------

	                                 ==> Convergence Check <==                                  
    
	Measures of convergence in internal coordinates in au.
    
	Criteria marked as inactive (o), active & met (*), and active & unmet ( ).

	----------------------------------------------------------------------------------------------
	   Step    Total Energy     Delta E     Max Force     RMS Force      Max Disp      RMS Disp   
	----------------------------------------------------------------------------------------------
	  Convergence Criteria     1.00e-06 *    3.00e-04 *             o    1.20e-03 *             o
	----------------------------------------------------------------------------------------------
	    12     -76.31029462   -3.83e-06      4.73e-04      2.12e-04 o    4.66e-03      2.84e-03 o  ~
	----------------------------------------------------------------------------------------------

Next Geometry in Ang 
	Fragment 1 (Ang)

	    O  -0.0000502094   0.0001905629   0.0347464124
	    H   0.8081610731  -0.4692177380  -0.1902667226
	    H  -0.8107885685  -0.4647776304  -0.1901174914
	    H   0.0024773740   0.9347789916  -0.1891418405

2026-01-05:16:03:54,449 INFO     [psi4.optking.convcheck:76] Performing convergence check.
2026-01-05:16:03:54,449 INFO     [psi4.optking.convcheck:282] 
	                                 ==> Convergence Check <==                                  
    
	Measures of convergence in internal coordinates in au.
    
	Criteria marked as inactive (o), active & met (*), and active & unmet ( ).

	----------------------------------------------------------------------------------------------
	   Step    Total Energy     Delta E     Max Force     RMS Force      Max Disp      RMS Disp   
	----------------------------------------------------------------------------------------------
	  Convergence Criteria     1.00e-06 *    3.00e-04 *             o    1.20e-03 *             o
	----------------------------------------------------------------------------------------------
	    12     -76.31029462   -3.83e-06      4.73e-04      2.12e-04 o    4.66e-03      2.84e-03 o  ~
	----------------------------------------------------------------------------------------------


2026-01-05:16:03:54,449 INFO     [psi4.optking.stepAlgorithms:296] 	Convergence check returned False

    Structure for next step:
    Molecular point group: c1
    Full point group: C1

    Geometry (in Angstrom), charge = 1, multiplicity = 1:

    O           -0.000000026858    -0.000011230866     0.035704259771
    H            0.808211255657    -0.469419531730    -0.189308875274
    H           -0.810738385936    -0.464979424134    -0.189159644020
    H            0.002527556542     0.934577197857    -0.188183993128


Scratch directory: /tmp/
2026-01-05:16:03:54,466 INFO     [psi4.driver.task_planner:285] PLANNING Atomic:  keywords={'SCF__GUESS': 'READ', 'SCF__INTS_TOLERANCE': 1e-12, 'REFERENCE': 'RHF', 'function_kwargs': {}}
gradient() will perform analytic gradient computation.
2026-01-05:16:03:54,468 INFO     [psi4.driver.driver:636] Compute gradient(): method=hf, basis=6-31g(d,p), molecule=default, nre=14.193343083132586
   => Libint2 <=

    Primary   basis highest AM E, G, H:  6, 6, 3
    Auxiliary basis highest AM E, G, H:  7, 7, 4
    Onebody   basis highest AM E, G, H:  -, -, -
    Solid Harmonics ordering:            Gaussian

*** tstart() called on sugarcube
*** at Mon Jan  5 16:03:54 2026

   => Loading Basis Set <=

    Name: 6-31G(D,P)
    Role: ORBITAL
    Keyword: BASIS
    atoms 1   entry O          line   149 file /opt/tljh/user/envs/pchem2/share/psi4/basis/6-31g_d_p_.gbs 
    atoms 2-4 entry H          line    44 file /opt/tljh/user/envs/pchem2/share/psi4/basis/6-31g_d_p_.gbs 


         ---------------------------------------------------------
                                   SCF
               by Justin Turney, Rob Parrish, Andy Simmonett
                          and Daniel G. A. Smith
                              RHF Reference
                        1 Threads,    500 MiB Core
         ---------------------------------------------------------

  ==> Geometry <==

    Molecular point group: c1
    Full point group: C1

    Geometry (in Angstrom), charge = 1, multiplicity = 1:

       Center              X                  Y                   Z               Mass       
    ------------   -----------------  -----------------  -----------------  -----------------
         O           -0.000000026858    -0.000011230866     0.035704259771    15.994914619570
         H            0.808211255657    -0.469419531730    -0.189308875274     1.007825032230
         H           -0.810738385936    -0.464979424134    -0.189159644020     1.007825032230
         H            0.002527556542     0.934577197857    -0.188183993128     1.007825032230

  Running in c1 symmetry.

  Rotational constants: A =     11.63798  B =     11.63375  C =      6.38302 [cm^-1]
  Rotational constants: A = 348897.96007  B = 348771.06865  C = 191358.23746 [MHz]
  Nuclear repulsion =   14.193343083132586

  Charge       = 1
  Multiplicity = 1
  Electrons    = 10
  Nalpha       = 5
  Nbeta        = 5

  ==> Algorithm <==

  SCF Algorithm Type is DF.
  DIIS enabled.
  MOM disabled.
  Fractional occupation disabled.
  Guess Type is READ.
  Energy threshold   = 1.00e-08
  Density threshold  = 1.00e-08
  Integral threshold = 1.00e-12

  ==> Primary Basis <==

  Basis Set: 6-31G(D,P)
    Blend: 6-31G(D,P)
    Number of shells: 15
    Number of basis functions: 30
    Number of Cartesian functions: 30
    Spherical Harmonics?: false
    Max angular momentum: 2

   => Loading Basis Set <=

    Name: (6-31G(D,P) AUX)
    Role: JKFIT
    Keyword: DF_BASIS_SCF
    atoms 1   entry O          line   221 file /opt/tljh/user/envs/pchem2/share/psi4/basis/cc-pvdz-jkfit.gbs 
    atoms 2-4 entry H          line    51 file /opt/tljh/user/envs/pchem2/share/psi4/basis/cc-pvdz-jkfit.gbs 

   => Loading Basis Set <=

    Name: 6-31G(D,P)
    Role: ORBITAL
    Keyword: BASIS
    atoms 1   entry O          line   149 file /opt/tljh/user/envs/pchem2/share/psi4/basis/6-31g_d_p_.gbs 
    atoms 2-4 entry H          line    44 file /opt/tljh/user/envs/pchem2/share/psi4/basis/6-31g_d_p_.gbs 

  Reading orbitals from file /tmp/pyramidal_h30.default.79410.180.npy, no projection.

  ==> Integral Setup <==

  DFHelper Memory: AOs need 0.001 GiB; user supplied 0.366 GiB. 
  Using in-core AOs.

  ==> MemDFJK: Density-Fitted J/K Matrices <==

    J tasked:                   Yes
    K tasked:                   Yes
    wK tasked:                   No
    OpenMP threads:               1
    Memory [MiB]:               375
    Algorithm:                 Core
    Schwarz Cutoff:           1E-12
    Mask sparsity (%):       0.0000
    Fitting Condition:        1E-10

   => Auxiliary Basis Set <=

  Basis Set: (6-31G(D,P) AUX)
    Blend: CC-PVDZ-JKFIT
    Number of shells: 51
    Number of basis functions: 156
    Number of Cartesian functions: 156
    Spherical Harmonics?: false
    Max angular momentum: 3

  Minimum eigenvalue in the overlap matrix is 1.8212521928E-02.
  Reciprocal condition number of the overlap matrix is 3.3727045785E-03.
    Using symmetric orthogonalization.

  ==> Pre-Iterations <==

  SCF Guess: Orbitals guess was supplied from a previous computation.

   -------------------------------------------------------
    Irrep   Nso     Nmo     Nalpha   Nbeta   Ndocc  Nsocc
   -------------------------------------------------------
     A         30      30       5       5       5       0
   -------------------------------------------------------
    Total      30      30       5       5       5       0
   -------------------------------------------------------

  ==> Iterations <==

                           Total Energy        Delta E     RMS |[F,P]|

   @DF-RHF iter   0:   -76.31042493027685   -7.63104e+01   7.42178e-05 
   @DF-RHF iter   1:   -76.31029521807613    1.29712e-04   1.36279e-05 DIIS
   @DF-RHF iter   2:   -76.31029530955054   -9.14744e-08   3.52794e-06 DIIS
   @DF-RHF iter   3:   -76.31029532106936   -1.15188e-08   1.45905e-06 DIIS
   @DF-RHF iter   4:   -76.31029532276912   -1.69976e-09   4.44253e-07 DIIS
   @DF-RHF iter   5:   -76.31029532292452   -1.55396e-10   7.32427e-08 DIIS
   @DF-RHF iter   6:   -76.31029532293070   -6.18172e-12   8.32614e-09 DIIS
  Energy and wave function converged.


  ==> Post-Iterations <==

    Orbital Energies [Eh]
    ---------------------

    Doubly Occupied:                                                      

       1A    -21.011936     2A     -1.809261     3A     -1.149124  
       4A     -1.149030     5A     -0.950075  

    Virtual:                                                              

       6A     -0.108042     7A      0.004050     8A      0.004132  
       9A      0.646744    10A      0.646804    11A      0.705793  
      12A      0.762530    13A      0.896384    14A      0.896400  
      15A      1.097940    16A      1.343594    17A      1.343620  
      18A      1.986329    19A      2.000032    20A      2.215999  
      21A      2.216279    22A      2.515761    23A      2.516004  
      24A      2.580923    25A      3.034180    26A      3.034394  
      27A      3.311884    28A      3.480627    29A      3.480873  
      30A      4.048025  

    Final Occupation by Irrep:
              A 
    DOCC [     5 ]
    NA   [     5 ]
    NB   [     5 ]

  @DF-RHF Final Energy:   -76.31029532293070

   => Energetics <=

    Nuclear Repulsion Energy =             14.1933430831325857
    One-Electron Energy =                -128.8684252063717111
    Two-Electron Energy =                  38.3647868003084298
    Total Energy =                        -76.3102953229306991

Computation Completed


Properties will be evaluated at   0.000000,   0.000000,   0.000000 [a0]

Properties computed using the SCF density matrix


 Multipole Moments:

 ------------------------------------------------------------------------------------
     Multipole            Electronic (a.u.)      Nuclear  (a.u.)        Total (a.u.)
 ------------------------------------------------------------------------------------

 L = 1.  Multiply by 2.5417464519 to convert [e a0] to [Debye]
 Dipole X            :          0.0000156            0.0000004            0.0000160
 Dipole Y            :         -0.0000631            0.0001670            0.0001040
 Dipole Z            :         -0.0537833           -0.5310479           -0.5848312
 Magnitude           :                                                    0.5848312

 ------------------------------------------------------------------------------------

*** tstop() called on sugarcube at Mon Jan  5 16:03:54 2026
Module time:
	user time   =       0.11 seconds =       0.00 minutes
	system time =       0.01 seconds =       0.00 minutes
	total time  =          0 seconds =       0.00 minutes
Total time:
	user time   =      34.36 seconds =       0.57 minutes
	system time =       0.87 seconds =       0.01 minutes
	total time  =         96 seconds =       1.60 minutes

*** tstart() called on sugarcube
*** at Mon Jan  5 16:03:54 2026


         ------------------------------------------------------------
                                   SCF GRAD                          
                          Rob Parrish, Justin Turney,                
                       Andy Simmonett, and Alex Sokolov              
         ------------------------------------------------------------

  ==> Geometry <==

    Molecular point group: c1
    Full point group: C1

    Geometry (in Angstrom), charge = 1, multiplicity = 1:

       Center              X                  Y                   Z               Mass       
    ------------   -----------------  -----------------  -----------------  -----------------
         O           -0.000000026858    -0.000011230866     0.035704259771    15.994914619570
         H            0.808211255657    -0.469419531730    -0.189308875274     1.007825032230
         H           -0.810738385936    -0.464979424134    -0.189159644020     1.007825032230
         H            0.002527556542     0.934577197857    -0.188183993128     1.007825032230

  Nuclear repulsion =   14.193343083132586

  ==> Basis Set <==

  Basis Set: 6-31G(D,P)
    Blend: 6-31G(D,P)
    Number of shells: 15
    Number of basis functions: 30
    Number of Cartesian functions: 30
    Spherical Harmonics?: false
    Max angular momentum: 2

  ==> DFJKGrad: Density-Fitted SCF Gradients <==

    Gradient:                    1
    J tasked:                  Yes
    K tasked:                  Yes
    wK tasked:                  No
    OpenMP threads:              1
    Integrals threads:           1
    Memory [MiB]:              375
    Schwarz Cutoff:          1E-12
    Fitting Condition:       1E-10

   => Auxiliary Basis Set <=

  Basis Set: (6-31G(D,P) AUX)
    Blend: CC-PVDZ-JKFIT
    Number of shells: 51
    Number of basis functions: 156
    Number of Cartesian functions: 156
    Spherical Harmonics?: false
    Max angular momentum: 3


  -Total Gradient:
     Atom            X                  Y                   Z
    ------   -----------------  -----------------  -----------------
       1       -0.000056581086     0.000279983215    -0.000001012253
       2        0.000057821924    -0.000031228831    -0.000029990455
       3       -0.000000392051     0.000002317600    -0.000014051502
       4       -0.000000848787    -0.000251071984     0.000045054209


*** tstop() called on sugarcube at Mon Jan  5 16:03:54 2026
Module time:
	user time   =       0.02 seconds =       0.00 minutes
	system time =       0.00 seconds =       0.00 minutes
	total time  =          0 seconds =       0.00 minutes
Total time:
	user time   =      34.38 seconds =       0.57 minutes
	system time =       0.87 seconds =       0.01 minutes
	total time  =         96 seconds =       1.60 minutes
2026-01-05:16:03:54,614 INFO     [psi4.driver.driver:639] Return gradient(): -76.3102953229307
2026-01-05:16:03:54,614 INFO     [psi4.driver.driver:640] [[-0.00005658  0.00027998 -0.00000101]
 [ 0.00005782 -0.00003123 -0.00002999]
 [-0.00000039  0.00000232 -0.00001405]
 [-0.00000085 -0.00025107  0.00004505]]

    			-----------------------------------------

    			 OPTKING 3.0: for geometry optimizations 

    			     By R.A. King, Bethel University     

    			        with contributions from          

    			    A.V. Copan, J. Cayton, A. Heide      

    			-----------------------------------------

    
	                            ===> Fragment 1 <== 

	 Z (Atomic Numbers)          Masses                          Geom                  
	       8.000000            15.994915         -0.00000005 -0.00002122  0.06747127   
	       1.000000             1.007825          1.52729792 -0.88707435 -0.35774193   
	       1.000000             1.007825         -1.53207351 -0.87868377 -0.35745992   
	       1.000000             1.007825          0.00477639  1.76609495 -0.35561621   

	 - Coordinate -           - BOHR/RAD -       - ANG/DEG -
	 R(1,2)           =         1.816675           0.961343
	 R(1,3)           =         1.816553           0.961278
	 R(1,4)           =         1.816093           0.961035
	 B(2,1,3)         =         2.002169         114.715837
	 B(2,1,4)         =         2.002157         114.715167
	 B(3,1,4)         =         2.002160         114.715291
	 O(2,1,3,4)       =         0.683838          39.181016
	 O(3,1,2,4)       =        -0.683837         -39.180970
	 O(4,1,2,3)       =         0.683841          39.181221
2026-01-05:16:03:54,618 INFO     [psi4.optking.history:269] 	Performing BFGS update.
2026-01-05:16:03:54,618 INFO     [psi4.optking.history:280] 	Using 4 previous steps for update.
2026-01-05:16:03:54,620 INFO     [psi4.optking.history:317] 	Steps to be used in Hessian update:  12 11 10 9

2026-01-05:16:03:54,623 INFO     [psi4.optking.history:418] 	Updated Hessian (in au) 
 	   0.542319  -0.000543  -0.021803   0.002277   0.002565  -0.002290  -0.004198
	   0.002362  -0.002467
	  -0.000543   0.568575   0.003881   0.002388  -0.002133   0.002707  -0.002644
	   0.004476  -0.002764
	  -0.021803   0.003881   0.540994  -0.001616   0.002197   0.001902  -0.002556
	   0.002445  -0.003885
	   0.002277   0.002388  -0.001616   0.100866  -0.050390  -0.049638  -0.019745
	   0.020031   0.037059
	   0.002565  -0.002133   0.002197  -0.050390   0.100217  -0.048962  -0.019540
	  -0.036765  -0.020078
	  -0.002290   0.002707   0.001902  -0.049638  -0.048962   0.099433   0.036527
	   0.019485  -0.019738
	  -0.004198  -0.002644  -0.002556  -0.019745  -0.019540   0.036527   0.017130
	   0.004026  -0.004108
	   0.002362   0.004476   0.002445   0.020031  -0.036765   0.019485   0.004026
	   0.017211   0.004230
	  -0.002467  -0.002764  -0.003885   0.037059  -0.020078  -0.019738  -0.004108
	   0.004230   0.017331

2026-01-05:16:03:54,625 INFO     [psi4.optking.molsys:944] Projected (PHP) Hessian matrix
	   0.542319  -0.000543  -0.021803   0.002277   0.002565  -0.002290  -0.004198
	   0.002362  -0.002467
	  -0.000543   0.568575   0.003881   0.002388  -0.002133   0.002707  -0.002644
	   0.004476  -0.002764
	  -0.021803   0.003881   0.540994  -0.001616   0.002197   0.001902  -0.002556
	   0.002445  -0.003885
	   0.002277   0.002388  -0.001616   0.100866  -0.050390  -0.049638  -0.019745
	   0.020031   0.037059
	   0.002565  -0.002133   0.002197  -0.050390   0.100217  -0.048962  -0.019540
	  -0.036765  -0.020078
	  -0.002290   0.002707   0.001902  -0.049638  -0.048962   0.099433   0.036527
	   0.019485  -0.019738
	  -0.004198  -0.002644  -0.002556  -0.019745  -0.019540   0.036527   0.017130
	   0.004026  -0.004108
	   0.002362   0.004476   0.002445   0.020031  -0.036765   0.019485   0.004026
	   0.017211   0.004230
	  -0.002467  -0.002764  -0.003885   0.037059  -0.020078  -0.019738  -0.004108
	   0.004230   0.017331

2026-01-05:16:03:54,625 INFO     [psi4.optking.opt_helper:182] 
	         Geometry (au)                                       Gradient (au)
  -0.0000000508  -0.0000212233   0.0674712725		  -0.0000565811   0.0002799832  -0.0000010123
   1.5272979247  -0.8870743529  -0.3577419274		   0.0000578219  -0.0000312288  -0.0000299905
  -1.5320735088  -0.8786837656  -0.3574599212		  -0.0000003921   0.0000023176  -0.0000140515
   0.0047763896   1.7660949470  -0.3556162082		  -0.0000008488  -0.0002510720   0.0000450542

2026-01-05:16:03:54,626 INFO     [psi4.optking.stepAlgorithms:368] 	Current Step Report 
 
	Current energy:       -76.3102953229
	Energy change for the previous step:
		Actual       :        -0.0000007021
		Projected    :        -0.0000008399

2026-01-05:16:03:54,626 INFO     [psi4.optking.stepAlgorithms:371] 	Energy ratio =    0.83598
2026-01-05:16:03:54,626 INFO     [psi4.optking.stepAlgorithms:929] 	Using RFO solution 1.
2026-01-05:16:03:54,627 INFO     [psi4.optking.displace:100] 	Determining Cartesian step for fragment 1.
2026-01-05:16:03:54,631 INFO     [psi4.optking.displace:415] 	Successfully converged to displaced geometry.
2026-01-05:16:03:54,631 INFO     [psi4.optking.displace:416] 	RMS(dx):  4.018e-08 	Max(dx):  7.804e-08 	RMS(dq):  7.846e-08
2026-01-05:16:03:54,633 INFO     [psi4.optking.displace:172] 

	        --- Internal Coordinate Step in ANG or DEG, aJ/ANG or AJ/DEG ---
	-------------------------------------------------------------------------------
	           Coordinate      Previous         Force          Change          New 
	           ----------      --------        ------          ------        ------
	               R(1,2)       0.96134       -0.00058       -0.00007       0.96128
	               R(1,3)       0.96128       -0.00002       -0.00001       0.96127
	               R(1,4)       0.96103        0.00210        0.00024       0.96127
	             B(2,1,3)     114.71584       -0.00000        0.01232     114.72816
	             B(2,1,4)     114.71517        0.00000        0.01285     114.72801
	             B(3,1,4)     114.71529        0.00000        0.01286     114.72815
	           O(2,1,3,4)      39.18102       -0.00000       -0.04589      39.13512
	           O(3,1,2,4)     -39.18097        0.00000        0.04590     -39.13507
	           O(4,1,2,3)      39.18122       -0.00000       -0.04610      39.13513
	-------------------------------------------------------------------------------

2026-01-05:16:03:54,633 INFO     [psi4.optking.stepAlgorithms:113] 	|target step| :    0.0015159032
2026-01-05:16:03:54,633 INFO     [psi4.optking.stepAlgorithms:114] 	gradient     :   -0.0000968049
2026-01-05:16:03:54,633 INFO     [psi4.optking.stepAlgorithms:115] 	hessian      :    0.0638594253
2026-01-05:16:03:54,633 INFO     [psi4.optking.stepAlgorithms:113] 	|target step| :    0.0015159032
2026-01-05:16:03:54,633 INFO     [psi4.optking.stepAlgorithms:114] 	gradient     :   -0.0000968049
2026-01-05:16:03:54,633 INFO     [psi4.optking.stepAlgorithms:115] 	hessian      :    0.0638594217
2026-01-05:16:03:54,633 INFO     [psi4.optking.stepAlgorithms:206] 	Norm of achieved step-size    0.0015159032
2026-01-05:16:03:54,633 INFO     [psi4.optking.stepAlgorithms:208] 	Norm of achieved step-size (cart):    0.0006742762
2026-01-05:16:03:54,634 INFO     [psi4.optking.opt_helper:164] Molsys:

	                            ===> Fragment 1 <== 

	 Z (Atomic Numbers)          Masses                          Geom                  
	       8.000000            15.994915          0.00002327 -0.00015717  0.06709795   
	       1.000000             1.007825          1.52731736 -0.88720224 -0.35760344   
	       1.000000             1.007825         -1.53213893 -0.87886229 -0.35732803   
	       1.000000             1.007825          0.00479906  1.76653731 -0.35551326   

	 - Coordinate -           - BOHR/RAD -       - ANG/DEG -
	 R(1,2)           =         1.816548           0.961276
	 R(1,3)           =         1.816530           0.961266
	 R(1,4)           =         1.816544           0.961274
	 B(2,1,3)         =         2.002384         114.728159
	 B(2,1,4)         =         2.002382         114.728013
	 B(3,1,4)         =         2.002384         114.728155
	 O(2,1,3,4)       =         0.683037          39.135124
	 O(3,1,2,4)       =        -0.683036         -39.135071
	 O(4,1,2,3)       =         0.683037          39.135126



	        --- Internal Coordinate Step in ANG or DEG, aJ/ANG or AJ/DEG ---
	-------------------------------------------------------------------------------
	           Coordinate      Previous         Force          Change          New 
	           ----------      --------        ------          ------        ------
	               R(1,2)       0.96134       -0.00058       -0.00007       0.96128
	               R(1,3)       0.96128       -0.00002       -0.00001       0.96127
	               R(1,4)       0.96103        0.00210        0.00024       0.96127
	             B(2,1,3)     114.71584       -0.00000        0.01232     114.72816
	             B(2,1,4)     114.71517        0.00000        0.01285     114.72801
	             B(3,1,4)     114.71529        0.00000        0.01286     114.72815
	           O(2,1,3,4)      39.18102       -0.00000       -0.04589      39.13512
	           O(3,1,2,4)     -39.18097        0.00000        0.04590     -39.13507
	           O(4,1,2,3)      39.18122       -0.00000       -0.04610      39.13513
	-------------------------------------------------------------------------------

	                                 ==> Convergence Check <==                                  
    
	Measures of convergence in internal coordinates in au.
    
	Criteria marked as inactive (o), active & met (*), and active & unmet ( ).

	----------------------------------------------------------------------------------------------
	   Step    Total Energy     Delta E     Max Force     RMS Force      Max Disp      RMS Disp   
	----------------------------------------------------------------------------------------------
	  Convergence Criteria     1.00e-06 *    3.00e-04 *             o    1.20e-03 *             o
	----------------------------------------------------------------------------------------------
	    13     -76.31029532   -7.02e-07 *    2.55e-04 *    8.83e-05 o    8.05e-04 *    5.05e-04 o  ~
	----------------------------------------------------------------------------------------------

Next Geometry in Ang 
	Fragment 1 (Ang)

	    O   0.0000123140  -0.0000831715   0.0355067047
	    H   0.8082215388  -0.4694872086  -0.1892355893
	    H  -0.8107730077  -0.4650738929  -0.1890898521
	    H   0.0025395542   0.9348112842  -0.1881295160

2026-01-05:16:03:54,635 INFO     [psi4.optking.convcheck:76] Performing convergence check.
2026-01-05:16:03:54,635 INFO     [psi4.optking.convcheck:282] 
	                                 ==> Convergence Check <==                                  
    
	Measures of convergence in internal coordinates in au.
    
	Criteria marked as inactive (o), active & met (*), and active & unmet ( ).

	----------------------------------------------------------------------------------------------
	   Step    Total Energy     Delta E     Max Force     RMS Force      Max Disp      RMS Disp   
	----------------------------------------------------------------------------------------------
	  Convergence Criteria     1.00e-06 *    3.00e-04 *             o    1.20e-03 *             o
	----------------------------------------------------------------------------------------------
	    13     -76.31029532   -7.02e-07 *    2.55e-04 *    8.83e-05 o    8.05e-04 *    5.05e-04 o  ~
	----------------------------------------------------------------------------------------------


2026-01-05:16:03:54,635 INFO     [psi4.optking.convcheck:206] 
	                      ===> Final Convergence Report <===                     

	----------------------------------------------------------------------------
	|   Required Criteria    |  One or More Criteria  |   Alternate Criteria   |
	----------------------------------------------------------------------------
	| [x]     max_force      | [x]       max_DE       |                        |
	|                        | [x]      max_disp      |                        |
	----------------------------------------------------------------------------


2026-01-05:16:03:54,635 INFO     [psi4.optking.stepAlgorithms:296] 	Convergence check returned True
2026-01-05:16:03:54,635 INFO     [psi4.optking.optimize:332] 	Converged in 13 steps!
2026-01-05:16:03:54,635 INFO     [psi4.optking.optimize:333] 	Final energy is    -76.3102953229307
2026-01-05:16:03:54,635 INFO     [psi4.optking.optimize:334] 	Final structure (Angstroms): 
	Fragment 1 (Ang)

	    O   0.0000123140  -0.0000831715   0.0355067047
	    H   0.8082215388  -0.4694872086  -0.1892355893
	    H  -0.8107730077  -0.4650738929  -0.1890898521
	    H   0.0025395542   0.9348112842  -0.1881295160



    Final optimized geometry and variables:
    Molecular point group: c1
    Full point group: C1

    Geometry (in Angstrom), charge = 1, multiplicity = 1:

    O           -0.000000026858    -0.000011230866     0.035704259771
    H            0.808211255657    -0.469419531730    -0.189308875274
    H           -0.810738385936    -0.464979424134    -0.189159644020
    H            0.002527556542     0.934577197857    -0.188183993128

2026-01-05:16:03:54,636 INFO     [psi4.optking.optimize:562] 	Optimization Finished

	==> Optimization Summary <==

        
	Measures of convergence in internal coordinates in au. (Any backward steps not shown.)
        
	---------------------------------------------------------------------------------------------------------------  ~
        
	 Step         Total Energy             Delta E       MAX Force       RMS Force        MAX Disp        RMS Disp   ~
        
	---------------------------------------------------------------------------------------------------------------  ~
        
	     1     -76.165911484134    -76.165911484134      0.11866868      0.06890105      0.28754576      0.16666648  ~
	     2     -76.257092460905     -0.091180976771      0.08254938      0.04847405      0.37822167      0.22524600  ~
	     3     -76.277759736612     -0.020667275706      0.09770171      0.05695454      0.17396394      0.10180696  ~
	     4     -76.297614868412     -0.019855131801      0.01778289      0.01311854      0.12406053      0.10051616  ~
	     5     -76.300391710918     -0.002776842506      0.04128001      0.02355783      0.14623135      0.10424751  ~
	     6     -76.307375924136     -0.006984213218      0.01583185      0.00775456      0.14102803      0.09144064  ~
	     7     -76.309267954332     -0.001892030195      0.01730019      0.00703180      0.08127150      0.05265362  ~
	     8     -76.309822483698     -0.000554529367      0.01621510      0.00601029      0.04112846      0.02666969  ~
	     9     -76.310220442821     -0.000397959123      0.00068816      0.00050866      0.03258060      0.01964166  ~
	    10     -76.310274225352     -0.000053782531      0.00076529      0.00036567      0.02042230      0.01227769  ~
	    11     -76.310290789785     -0.000016564434      0.00056577      0.00022802      0.01206837      0.00727028  ~
	    12     -76.310294620804     -0.000003831019      0.00047258      0.00021222      0.00466293      0.00284063  ~
	    13     -76.310295322931     -0.000000702127      0.00025466      0.00008828      0.00080452      0.00050530  ~
	----------------------------------------------------------------------------------------------------------------


2026-01-05:16:03:54,636 INFO     [psi4.optking.optimize:806] Preparing OptimizationResult
2026-01-05:16:03:54,653 INFO     [psi4.driver.task_planner:285] PLANNING Atomic:  keywords={'SCF__INTS_TOLERANCE': 1e-12, 'REFERENCE': 'RHF', 'function_kwargs': {}}

Scratch directory: /tmp/
2026-01-05:16:03:54,670 INFO     [psi4.driver.task_planner:285] PLANNING Atomic:  keywords={'SCF__D_CONVERGENCE': 1e-08, 'SCF__E_CONVERGENCE': 1e-08, 'SCF__INTS_TOLERANCE': 1e-12, 'REFERENCE': 'RHF', 'function_kwargs': {}}
gradient() will perform analytic gradient computation.
2026-01-05:16:03:54,671 INFO     [psi4.driver.driver:636] Compute gradient(): method=hf, basis=6-31g(d,p), molecule=default, nre=14.193343083132586
   => Libint2 <=

    Primary   basis highest AM E, G, H:  6, 6, 3
    Auxiliary basis highest AM E, G, H:  7, 7, 4
    Onebody   basis highest AM E, G, H:  -, -, -
    Solid Harmonics ordering:            Gaussian

*** tstart() called on sugarcube
*** at Mon Jan  5 16:03:54 2026

   => Loading Basis Set <=

    Name: 6-31G(D,P)
    Role: ORBITAL
    Keyword: BASIS
    atoms 1   entry O          line   149 file /opt/tljh/user/envs/pchem2/share/psi4/basis/6-31g_d_p_.gbs 
    atoms 2-4 entry H          line    44 file /opt/tljh/user/envs/pchem2/share/psi4/basis/6-31g_d_p_.gbs 


         ---------------------------------------------------------
                                   SCF
               by Justin Turney, Rob Parrish, Andy Simmonett
                          and Daniel G. A. Smith
                              RHF Reference
                        1 Threads,    500 MiB Core
         ---------------------------------------------------------

  ==> Geometry <==

    Molecular point group: c1
    Full point group: C1

    Geometry (in Angstrom), charge = 1, multiplicity = 1:

       Center              X                  Y                   Z               Mass       
    ------------   -----------------  -----------------  -----------------  -----------------
         O           -0.000000026858    -0.000011230866     0.035704259771    15.994914619570
         H            0.808211255657    -0.469419531730    -0.189308875274     1.007825032230
         H           -0.810738385936    -0.464979424134    -0.189159644020     1.007825032230
         H            0.002527556542     0.934577197857    -0.188183993128     1.007825032230

  Running in c1 symmetry.

  Rotational constants: A =     11.63798  B =     11.63375  C =      6.38302 [cm^-1]
  Rotational constants: A = 348897.96007  B = 348771.06865  C = 191358.23746 [MHz]
  Nuclear repulsion =   14.193343083132586

  Charge       = 1
  Multiplicity = 1
  Electrons    = 10
  Nalpha       = 5
  Nbeta        = 5

  ==> Algorithm <==

  SCF Algorithm Type is DF.
  DIIS enabled.
  MOM disabled.
  Fractional occupation disabled.
  Guess Type is SAD.
  Energy threshold   = 1.00e-08
  Density threshold  = 1.00e-08
  Integral threshold = 1.00e-12

  ==> Primary Basis <==

  Basis Set: 6-31G(D,P)
    Blend: 6-31G(D,P)
    Number of shells: 15
    Number of basis functions: 30
    Number of Cartesian functions: 30
    Spherical Harmonics?: false
    Max angular momentum: 2

   => Loading Basis Set <=

    Name: (6-31G(D,P) AUX)
    Role: JKFIT
    Keyword: DF_BASIS_SCF
    atoms 1   entry O          line   221 file /opt/tljh/user/envs/pchem2/share/psi4/basis/cc-pvdz-jkfit.gbs 
    atoms 2-4 entry H          line    51 file /opt/tljh/user/envs/pchem2/share/psi4/basis/cc-pvdz-jkfit.gbs 

  ==> Integral Setup <==

  DFHelper Memory: AOs need 0.001 GiB; user supplied 0.366 GiB. 
  Using in-core AOs.

  ==> MemDFJK: Density-Fitted J/K Matrices <==

    J tasked:                   Yes
    K tasked:                   Yes
    wK tasked:                   No
    OpenMP threads:               1
    Memory [MiB]:               375
    Algorithm:                 Core
    Schwarz Cutoff:           1E-12
    Mask sparsity (%):       0.0000
    Fitting Condition:        1E-10

   => Auxiliary Basis Set <=

  Basis Set: (6-31G(D,P) AUX)
    Blend: CC-PVDZ-JKFIT
    Number of shells: 51
    Number of basis functions: 156
    Number of Cartesian functions: 156
    Spherical Harmonics?: false
    Max angular momentum: 3

  Minimum eigenvalue in the overlap matrix is 1.8212521928E-02.
  Reciprocal condition number of the overlap matrix is 3.3727045785E-03.
    Using symmetric orthogonalization.

  ==> Pre-Iterations <==

  SCF Guess: Superposition of Atomic Densities via on-the-fly atomic UHF (no occupation information).

   -------------------------
    Irrep   Nso     Nmo    
   -------------------------
     A         30      30 
   -------------------------
    Total      30      30
   -------------------------

  ==> Iterations <==

                           Total Energy        Delta E     RMS |[F,P]|

   @DF-RHF iter SAD:   -76.39181514058959   -7.63918e+01   0.00000e+00 
   @DF-RHF iter   1:   -76.27896461359245    1.12851e-01   8.27790e-03 DIIS/ADIIS
   @DF-RHF iter   2:   -76.30795156682157   -2.89870e-02   2.39874e-03 DIIS/ADIIS
   @DF-RHF iter   3:   -76.30996968732674   -2.01812e-03   8.96439e-04 DIIS/ADIIS
   @DF-RHF iter   4:   -76.31028638787414   -3.16701e-04   1.47591e-04 DIIS/ADIIS
   @DF-RHF iter   5:   -76.31029499078848   -8.60291e-06   2.12707e-05 DIIS
   @DF-RHF iter   6:   -76.31029531509350   -3.24305e-07   2.93075e-06 DIIS
   @DF-RHF iter   7:   -76.31029532283009   -7.73659e-09   3.45448e-07 DIIS
   @DF-RHF iter   8:   -76.31029532292389   -9.38059e-11   3.51880e-08 DIIS
   @DF-RHF iter   9:   -76.31029532292504   -1.15108e-12   8.87543e-09 DIIS
  Energy and wave function converged.


  ==> Post-Iterations <==

    Orbital Energies [Eh]
    ---------------------

    Doubly Occupied:                                                      

       1A    -21.011936     2A     -1.809261     3A     -1.149124  
       4A     -1.149030     5A     -0.950075  

    Virtual:                                                              

       6A     -0.108042     7A      0.004050     8A      0.004132  
       9A      0.646744    10A      0.646804    11A      0.705793  
      12A      0.762530    13A      0.896384    14A      0.896400  
      15A      1.097940    16A      1.343594    17A      1.343620  
      18A      1.986329    19A      2.000032    20A      2.215999  
      21A      2.216279    22A      2.515761    23A      2.516004  
      24A      2.580923    25A      3.034180    26A      3.034394  
      27A      3.311884    28A      3.480627    29A      3.480873  
      30A      4.048025  

    Final Occupation by Irrep:
              A 
    DOCC [     5 ]
    NA   [     5 ]
    NB   [     5 ]

  @DF-RHF Final Energy:   -76.31029532292504

   => Energetics <=

    Nuclear Repulsion Energy =             14.1933430831325857
    One-Electron Energy =                -128.8684250752400544
    Two-Electron Energy =                  38.3647866691824220
    Total Energy =                        -76.3102953229250431

Computation Completed


Properties will be evaluated at   0.000000,   0.000000,   0.000000 [a0]

Properties computed using the SCF density matrix


 Multipole Moments:

 ------------------------------------------------------------------------------------
     Multipole            Electronic (a.u.)      Nuclear  (a.u.)        Total (a.u.)
 ------------------------------------------------------------------------------------

 L = 1.  Multiply by 2.5417464519 to convert [e a0] to [Debye]
 Dipole X            :          0.0000156            0.0000004            0.0000160
 Dipole Y            :         -0.0000631            0.0001670            0.0001040
 Dipole Z            :         -0.0537834           -0.5310479           -0.5848312
 Magnitude           :                                                    0.5848312

 ------------------------------------------------------------------------------------

*** tstop() called on sugarcube at Mon Jan  5 16:03:54 2026
Module time:
	user time   =       0.18 seconds =       0.00 minutes
	system time =       0.00 seconds =       0.00 minutes
	total time  =          0 seconds =       0.00 minutes
Total time:
	user time   =      34.63 seconds =       0.58 minutes
	system time =       0.87 seconds =       0.01 minutes
	total time  =         96 seconds =       1.60 minutes

*** tstart() called on sugarcube
*** at Mon Jan  5 16:03:54 2026


         ------------------------------------------------------------
                                   SCF GRAD                          
                          Rob Parrish, Justin Turney,                
                       Andy Simmonett, and Alex Sokolov              
         ------------------------------------------------------------

  ==> Geometry <==

    Molecular point group: c1
    Full point group: C1

    Geometry (in Angstrom), charge = 1, multiplicity = 1:

       Center              X                  Y                   Z               Mass       
    ------------   -----------------  -----------------  -----------------  -----------------
         O           -0.000000026858    -0.000011230866     0.035704259771    15.994914619570
         H            0.808211255657    -0.469419531730    -0.189308875274     1.007825032230
         H           -0.810738385936    -0.464979424134    -0.189159644020     1.007825032230
         H            0.002527556542     0.934577197857    -0.188183993128     1.007825032230

  Nuclear repulsion =   14.193343083132586

  ==> Basis Set <==

  Basis Set: 6-31G(D,P)
    Blend: 6-31G(D,P)
    Number of shells: 15
    Number of basis functions: 30
    Number of Cartesian functions: 30
    Spherical Harmonics?: false
    Max angular momentum: 2

  ==> DFJKGrad: Density-Fitted SCF Gradients <==

    Gradient:                    1
    J tasked:                  Yes
    K tasked:                  Yes
    wK tasked:                  No
    OpenMP threads:              1
    Integrals threads:           1
    Memory [MiB]:              375
    Schwarz Cutoff:          1E-12
    Fitting Condition:       1E-10

   => Auxiliary Basis Set <=

  Basis Set: (6-31G(D,P) AUX)
    Blend: CC-PVDZ-JKFIT
    Number of shells: 51
    Number of basis functions: 156
    Number of Cartesian functions: 156
    Spherical Harmonics?: false
    Max angular momentum: 3


  -Total Gradient:
     Atom            X                  Y                   Z
    ------   -----------------  -----------------  -----------------
       1       -0.000056580728     0.000279981725    -0.000001002956
       2        0.000057821420    -0.000031228997    -0.000029993121
       3       -0.000000392050     0.000002316981    -0.000014054439
       4       -0.000000848641    -0.000251069709     0.000045050515


*** tstop() called on sugarcube at Mon Jan  5 16:03:54 2026
Module time:
	user time   =       0.02 seconds =       0.00 minutes
	system time =       0.00 seconds =       0.00 minutes
	total time  =          0 seconds =       0.00 minutes
Total time:
	user time   =      34.65 seconds =       0.58 minutes
	system time =       0.87 seconds =       0.01 minutes
	total time  =         96 seconds =       1.60 minutes
2026-01-05:16:03:54,890 INFO     [psi4.driver.driver:639] Return gradient(): -76.31029532292504
2026-01-05:16:03:54,890 INFO     [psi4.driver.driver:640] [[-0.00005658  0.00027998 -0.00000100]
 [ 0.00005782 -0.00003123 -0.00002999]
 [-0.00000039  0.00000232 -0.00001405]
 [-0.00000085 -0.00025107  0.00004505]]

  Based on options and gradient (rms=1.13E-04), recommend projecting translations and projecting rotations.
2026-01-05:16:03:54,891 INFO     [psi4.driver.driver:1470] Compute hessian(): method=hf, basis=6-31g(d,p), molecule=default, nre=14.193343083132586
hessian() will perform analytic frequency computation.
   => Libint2 <=

    Primary   basis highest AM E, G, H:  6, 6, 3
    Auxiliary basis highest AM E, G, H:  7, 7, 4
    Onebody   basis highest AM E, G, H:  -, -, -
    Solid Harmonics ordering:            Gaussian

*** tstart() called on sugarcube
*** at Mon Jan  5 16:03:54 2026

   => Loading Basis Set <=

    Name: 6-31G(D,P)
    Role: ORBITAL
    Keyword: BASIS
    atoms 1   entry O          line   149 file /opt/tljh/user/envs/pchem2/share/psi4/basis/6-31g_d_p_.gbs 
    atoms 2-4 entry H          line    44 file /opt/tljh/user/envs/pchem2/share/psi4/basis/6-31g_d_p_.gbs 


         ---------------------------------------------------------
                                   SCF
               by Justin Turney, Rob Parrish, Andy Simmonett
                          and Daniel G. A. Smith
                              RHF Reference
                        1 Threads,    500 MiB Core
         ---------------------------------------------------------

  ==> Geometry <==

    Molecular point group: c1
    Full point group: C1

    Geometry (in Angstrom), charge = 1, multiplicity = 1:

       Center              X                  Y                   Z               Mass       
    ------------   -----------------  -----------------  -----------------  -----------------
         O           -0.000000026858    -0.000011230866     0.035704259771    15.994914619570
         H            0.808211255657    -0.469419531730    -0.189308875274     1.007825032230
         H           -0.810738385936    -0.464979424134    -0.189159644020     1.007825032230
         H            0.002527556542     0.934577197857    -0.188183993128     1.007825032230

  Running in c1 symmetry.

  Rotational constants: A =     11.63798  B =     11.63375  C =      6.38302 [cm^-1]
  Rotational constants: A = 348897.96007  B = 348771.06865  C = 191358.23746 [MHz]
  Nuclear repulsion =   14.193343083132586

  Charge       = 1
  Multiplicity = 1
  Electrons    = 10
  Nalpha       = 5
  Nbeta        = 5

  ==> Algorithm <==

  SCF Algorithm Type is DF.
  DIIS enabled.
  MOM disabled.
  Fractional occupation disabled.
  Guess Type is SAD.
  Energy threshold   = 1.00e-08
  Density threshold  = 1.00e-08
  Integral threshold = 1.00e-12

  ==> Primary Basis <==

  Basis Set: 6-31G(D,P)
    Blend: 6-31G(D,P)
    Number of shells: 15
    Number of basis functions: 30
    Number of Cartesian functions: 30
    Spherical Harmonics?: false
    Max angular momentum: 2

   => Loading Basis Set <=

    Name: (6-31G(D,P) AUX)
    Role: JKFIT
    Keyword: DF_BASIS_SCF
    atoms 1   entry O          line   221 file /opt/tljh/user/envs/pchem2/share/psi4/basis/cc-pvdz-jkfit.gbs 
    atoms 2-4 entry H          line    51 file /opt/tljh/user/envs/pchem2/share/psi4/basis/cc-pvdz-jkfit.gbs 

  ==> Integral Setup <==

  DFHelper Memory: AOs need 0.001 GiB; user supplied 0.366 GiB. 
  Using in-core AOs.

  ==> MemDFJK: Density-Fitted J/K Matrices <==

    J tasked:                   Yes
    K tasked:                   Yes
    wK tasked:                   No
    OpenMP threads:               1
    Memory [MiB]:               375
    Algorithm:                 Core
    Schwarz Cutoff:           1E-12
    Mask sparsity (%):       0.0000
    Fitting Condition:        1E-10

   => Auxiliary Basis Set <=

  Basis Set: (6-31G(D,P) AUX)
    Blend: CC-PVDZ-JKFIT
    Number of shells: 51
    Number of basis functions: 156
    Number of Cartesian functions: 156
    Spherical Harmonics?: false
    Max angular momentum: 3

  Minimum eigenvalue in the overlap matrix is 1.8212521928E-02.
  Reciprocal condition number of the overlap matrix is 3.3727045785E-03.
    Using symmetric orthogonalization.

  ==> Pre-Iterations <==

  SCF Guess: Superposition of Atomic Densities via on-the-fly atomic UHF (no occupation information).

   -------------------------
    Irrep   Nso     Nmo    
   -------------------------
     A         30      30 
   -------------------------
    Total      30      30
   -------------------------

  ==> Iterations <==

                           Total Energy        Delta E     RMS |[F,P]|

   @DF-RHF iter SAD:   -76.39181514059985   -7.63918e+01   0.00000e+00 
   @DF-RHF iter   1:   -76.27896461360382    1.12851e-01   8.27790e-03 DIIS/ADIIS
   @DF-RHF iter   2:   -76.30795156683291   -2.89870e-02   2.39874e-03 DIIS/ADIIS
   @DF-RHF iter   3:   -76.30996968733797   -2.01812e-03   8.96439e-04 DIIS/ADIIS
   @DF-RHF iter   4:   -76.31028638788540   -3.16701e-04   1.47591e-04 DIIS/ADIIS
   @DF-RHF iter   5:   -76.31029499079979   -8.60291e-06   2.12707e-05 DIIS
   @DF-RHF iter   6:   -76.31029531510484   -3.24305e-07   2.93075e-06 DIIS
   @DF-RHF iter   7:   -76.31029532284144   -7.73660e-09   3.45448e-07 DIIS
   @DF-RHF iter   8:   -76.31029532293529   -9.38485e-11   3.51880e-08 DIIS
   @DF-RHF iter   9:   -76.31029532293631   -1.02318e-12   8.87543e-09 DIIS
  Energy and wave function converged.


  ==> Post-Iterations <==

    Orbital Energies [Eh]
    ---------------------

    Doubly Occupied:                                                      

       1A    -21.011936     2A     -1.809261     3A     -1.149124  
       4A     -1.149030     5A     -0.950075  

    Virtual:                                                              

       6A     -0.108042     7A      0.004050     8A      0.004132  
       9A      0.646744    10A      0.646804    11A      0.705793  
      12A      0.762530    13A      0.896384    14A      0.896400  
      15A      1.097940    16A      1.343594    17A      1.343620  
      18A      1.986329    19A      2.000032    20A      2.215999  
      21A      2.216279    22A      2.515761    23A      2.516004  
      24A      2.580923    25A      3.034180    26A      3.034394  
      27A      3.311884    28A      3.480627    29A      3.480873  
      30A      4.048025  

    Final Occupation by Irrep:
              A 
    DOCC [     5 ]
    NA   [     5 ]
    NB   [     5 ]

  @DF-RHF Final Energy:   -76.31029532293631

   => Energetics <=

    Nuclear Repulsion Energy =             14.1933430831325857
    One-Electron Energy =                -128.8684250752504283
    Two-Electron Energy =                  38.3647866691815267
    Total Energy =                        -76.3102953229363123

Computation Completed


Properties will be evaluated at   0.000000,   0.000000,   0.000000 [a0]

Properties computed using the SCF density matrix


 Multipole Moments:

 ------------------------------------------------------------------------------------
     Multipole            Electronic (a.u.)      Nuclear  (a.u.)        Total (a.u.)
 ------------------------------------------------------------------------------------

 L = 1.  Multiply by 2.5417464519 to convert [e a0] to [Debye]
 Dipole X            :          0.0000156            0.0000004            0.0000160
 Dipole Y            :         -0.0000631            0.0001670            0.0001040
 Dipole Z            :         -0.0537834           -0.5310479           -0.5848312
 Magnitude           :                                                    0.5848312

 ------------------------------------------------------------------------------------

*** tstop() called on sugarcube at Mon Jan  5 16:03:55 2026
Module time:
	user time   =       0.18 seconds =       0.00 minutes
	system time =       0.00 seconds =       0.00 minutes
	total time  =          1 seconds =       0.02 minutes
Total time:
	user time   =      34.84 seconds =       0.58 minutes
	system time =       0.87 seconds =       0.01 minutes
	total time  =         97 seconds =       1.62 minutes

*** tstart() called on sugarcube
*** at Mon Jan  5 16:03:55 2026


         ------------------------------------------------------------
                                   SCF HESS                          
                          Rob Parrish, Justin Turney,                
                       Andy Simmonett, and Alex Sokolov              
         ------------------------------------------------------------

  ==> Geometry <==

    Molecular point group: c1
    Full point group: C1

    Geometry (in Angstrom), charge = 1, multiplicity = 1:

       Center              X                  Y                   Z               Mass       
    ------------   -----------------  -----------------  -----------------  -----------------
         O           -0.000000026858    -0.000011230866     0.035704259771    15.994914619570
         H            0.808211255657    -0.469419531730    -0.189308875274     1.007825032230
         H           -0.810738385936    -0.464979424134    -0.189159644020     1.007825032230
         H            0.002527556542     0.934577197857    -0.188183993128     1.007825032230

  Nuclear repulsion =   14.193343083132586

  ==> Basis Set <==

  Basis Set: 6-31G(D,P)
    Blend: 6-31G(D,P)
    Number of shells: 15
    Number of basis functions: 30
    Number of Cartesian functions: 30
    Spherical Harmonics?: false
    Max angular momentum: 2

  ==> DFJKGrad: Density-Fitted SCF Gradients <==

    Gradient:                    2
    J tasked:                  Yes
    K tasked:                  Yes
    wK tasked:                  No
    OpenMP threads:              1
    Integrals threads:           1
    Memory [MiB]:              375
    Schwarz Cutoff:          1E-12
    Fitting Condition:       1E-10

   => Auxiliary Basis Set <=

  Basis Set: (6-31G(D,P) AUX)
    Blend: CC-PVDZ-JKFIT
    Number of shells: 51
    Number of basis functions: 156
    Number of Cartesian functions: 156
    Spherical Harmonics?: false
    Max angular momentum: 3

  DFHelper Memory: AOs need 0.001 GiB; user supplied 0.439 GiB. 
  Using in-core AOs.

  ==> MemDFJK: Density-Fitted J/K Matrices <==

    J tasked:                   Yes
    K tasked:                   Yes
    wK tasked:                   No
    OpenMP threads:               1
    Memory [MiB]:               450
    Algorithm:                 Core
    Schwarz Cutoff:           1E-12
    Mask sparsity (%):       0.0000
    Fitting Condition:        1E-10

   => Auxiliary Basis Set <=

  Basis Set: (6-31G(D,P) AUX)
    Blend: CC-PVDZ-JKFIT
    Number of shells: 51
    Number of basis functions: 156
    Number of Cartesian functions: 156
    Spherical Harmonics?: false
    Max angular momentum: 3


   ==> Coupled-Perturbed RHF Solver <==

    Maxiter             =         100
    Convergence         =   1.000E-06
    Number of equations =          12
   -----------------------------------------------------
     Iter   Residual RMS      Max RMS  Remain  Time [s]
   -----------------------------------------------------
        1      4.092e-01    5.243e-01      12         0
        2      9.680e-02    1.342e-01      12         0
        3      1.833e-02    2.768e-02      12         0
        4      3.106e-03    6.101e-03      12         0
        5      3.823e-04    6.551e-04      12         0
        6      6.054e-05    9.138e-05      12         0
        7      1.036e-05    1.612e-05      12         0
        8      1.628e-06    2.564e-06       8         0
        9      5.614e-07    5.518e-07       0         0
  ## Total Hessian (Symmetry 0) ##
  Irrep: 1 Size: 12 x 12

                 1                   2                   3                   4                   5

    1     0.92358691732239     0.00012057750526    -0.00000649500808    -0.41197219086788     0.18256529769355
    2     0.00012057750526     0.92473022725374     0.00027204434150     0.18260578269110    -0.20361987821871
    3    -0.00000649500808     0.00027204434150     0.12895963680927     0.09496180865643    -0.05520068107420
    4    -0.41197219086788     0.18260578269110     0.09496180865643     0.41597309773663    -0.19982639674861
    5     0.18256529769355    -0.20361987821871    -0.05520068107420    -0.19982639674861     0.18798163942450
    6     0.12805964920213    -0.07443734750124    -0.04313401256021    -0.10353231239367     0.06017245425633
    7    -0.41416385234345    -0.18159047751183    -0.09525693547676    -0.01691959644160    -0.01680577729163
    8    -0.18154207365531    -0.20167591309023    -0.05468377616606     0.01702462253016     0.02272931955873
    9    -0.12846069162565    -0.07374266740099    -0.04307698935062     0.01108733980578     0.00922710060367
   10    -0.09745087412459    -0.00113588267800     0.00030162183314     0.01291868954313     0.03406687634191
   11    -0.00114380151626    -0.51943443593925     0.10961241291395     0.00019599154000    -0.00709108077401
   12     0.00040753743377     0.14790797056113    -0.04274863490678    -0.00251683607551    -0.01419887377662

                 6                   7                   8                   9                  10

    1     0.12805964920213    -0.41416385234345    -0.18154207365531    -0.12846069162565    -0.09745087412459
    2    -0.07443734750124    -0.18159047751183    -0.20167591309023    -0.07374266740099    -0.00113588267800
    3    -0.04313401256021    -0.09525693547676    -0.05468377616606    -0.04307698935062     0.00030162183314
    4    -0.10353231239367    -0.01691959644160     0.01702462253016     0.01108733980578     0.01291868954313
    5     0.06017245425633    -0.01680577729163     0.02272931955873     0.00922710060367     0.03406687634191
    6     0.03816360129128    -0.01103311695313     0.00928439042272     0.00249357381264    -0.01349421985012
    7    -0.01103311695313     0.41834807006462     0.19869770972688     0.10385247528060     0.01273537874591
    8     0.00928439042272     0.19869770972688     0.18585149440139     0.05960737465856    -0.03418025860356
    9     0.00249357381264     0.10385247528060     0.05960737465856     0.03810900770645     0.01352087652268
   10    -0.01349421985012     0.01273537874591    -0.03418025860356     0.01352087652268     0.07179680581988
   11     0.00498050282450    -0.00030145494319    -0.00690490086032     0.00490819212685     0.00124926493548
   12     0.00247683745710     0.00243757715115    -0.01420798891824     0.00247440782941    -0.00032827850323

                11                  12

    1    -0.00114380151626     0.00040753743377
    2    -0.51943443593925     0.14790797056113
    3     0.10961241291395    -0.04274863490678
    4     0.00019599154000    -0.00251683607551
    5    -0.00709108077401    -0.01419887377662
    6     0.00498050282450     0.00247683745710
    7    -0.00030145494319     0.00243757715115
    8    -0.00690490086032    -0.01420798891824
    9     0.00490819212685     0.00247440782941
   10     0.00124926493548    -0.00032827850323
   11     0.53343041754540    -0.11950110785199
   12    -0.11950110785199     0.03779738961553




*** tstop() called on sugarcube at Mon Jan  5 16:03:55 2026
Module time:
	user time   =       0.39 seconds =       0.01 minutes
	system time =       0.00 seconds =       0.00 minutes
	total time  =          0 seconds =       0.00 minutes
Total time:
	user time   =      35.23 seconds =       0.59 minutes
	system time =       0.87 seconds =       0.01 minutes
	total time  =         97 seconds =       1.62 minutes
2026-01-05:16:03:55,468 INFO     [psi4.driver.driver:1474] Return hessian(): -76.31029532293631
2026-01-05:16:03:55,469 INFO     [psi4.driver.driver:1475] [[ 0.92358692  0.00012058 -0.00000650 -0.41197219  0.18256530  0.12805965 -0.41416385 -0.18154207 -0.12846069
  -0.09745087 -0.00114380  0.00040754]
 [ 0.00012058  0.92473023  0.00027204  0.18260578 -0.20361988 -0.07443735 -0.18159048 -0.20167591 -0.07374267
  -0.00113588 -0.51943444  0.14790797]
 [-0.00000650  0.00027204  0.12895964  0.09496181 -0.05520068 -0.04313401 -0.09525694 -0.05468378 -0.04307699
   0.00030162  0.10961241 -0.04274863]
 [-0.41197219  0.18260578  0.09496181  0.41597310 -0.19982640 -0.10353231 -0.01691960  0.01702462  0.01108734
   0.01291869  0.00019599 -0.00251684]
 [ 0.18256530 -0.20361988 -0.05520068 -0.19982640  0.18798164  0.06017245 -0.01680578  0.02272932  0.00922710
   0.03406688 -0.00709108 -0.01419887]
 [ 0.12805965 -0.07443735 -0.04313401 -0.10353231  0.06017245  0.03816360 -0.01103312  0.00928439  0.00249357
  -0.01349422  0.00498050  0.00247684]
 [-0.41416385 -0.18159048 -0.09525694 -0.01691960 -0.01680578 -0.01103312  0.41834807  0.19869771  0.10385248
   0.01273538 -0.00030145  0.00243758]
 [-0.18154207 -0.20167591 -0.05468378  0.01702462  0.02272932  0.00928439  0.19869771  0.18585149  0.05960737
  -0.03418026 -0.00690490 -0.01420799]
 [-0.12846069 -0.07374267 -0.04307699  0.01108734  0.00922710  0.00249357  0.10385248  0.05960737  0.03810901
   0.01352088  0.00490819  0.00247441]
 [-0.09745087 -0.00113588  0.00030162  0.01291869  0.03406688 -0.01349422  0.01273538 -0.03418026  0.01352088
   0.07179681  0.00124926 -0.00032828]
 [-0.00114380 -0.51943444  0.10961241  0.00019599 -0.00709108  0.00498050 -0.00030145 -0.00690490  0.00490819
   0.00124926  0.53343042 -0.11950111]
 [ 0.00040754  0.14790797 -0.04274863 -0.00251684 -0.01419887  0.00247684  0.00243758 -0.01420799  0.00247441
  -0.00032828 -0.11950111  0.03779739]]


  ==> Harmonic Vibrational Analysis <==

  non-mass-weighted Hessian:       Symmetric? True   Hermitian? True   Lin Dep Dim?  0 (0)
  projection of translations (True) and rotations (True) removed 6 degrees of freedom (6)
  total projector:                 Symmetric? True   Hermitian? True   Lin Dep Dim?  6 (6)
  mass-weighted Hessian:           Symmetric? True   Hermitian? True   Lin Dep Dim?  0 (0)
  pre-proj  low-frequency mode:    0.0000i [cm^-1]
  pre-proj  low-frequency mode:    0.0000i [cm^-1]
  pre-proj  low-frequency mode:    0.0000i [cm^-1]
  pre-proj  low-frequency mode:    0.0000i [cm^-1]
  pre-proj  low-frequency mode:    0.0025  [cm^-1]
  pre-proj  low-frequency mode:   24.5877  [cm^-1]
  pre-proj  all modes:['46.7506i' '32.1416i' '0.0083i' '0.0059i' '0.0025' '24.5877' '783.0227'
 '1788.5080' '1788.9077' '3858.2380' '3992.8951' '3995.5740']
  projected mass-weighted Hessian: Symmetric? True   Hermitian? True   Lin Dep Dim?  6 (6)
  post-proj low-frequency mode:    0.0001i [cm^-1] (TR)
  post-proj low-frequency mode:    0.0001i [cm^-1] (TR)
  post-proj low-frequency mode:    0.0000i [cm^-1] (TR)
  post-proj low-frequency mode:    0.0000i [cm^-1] (TR)
  post-proj low-frequency mode:    0.0000  [cm^-1] (TR)
  post-proj low-frequency mode:    0.0000  [cm^-1] (TR)
  post-proj  all modes:['0.0001i' '0.0001i' '0.0000i' '0.0000i' '0.0000' '0.0000' '783.0180'
 '1788.5077' '1788.9077' '3858.2380' '3992.8951' '3995.5740']

  Vibration                       7                   8                   9           
  Freq [cm^-1]                 783.0180           1788.5077           1788.9077       
  Irrep                           A                   A                   A           
  Reduced mass [u]              1.1738              1.0695              1.0695        
  Force const [mDyne/A]         0.4240              2.0157              2.0165        
  Turning point v=0 [a0]        0.3619              0.2509              0.2509        
  RMS dev v=0 [a0 u^1/2]        0.2773              0.1835              0.1834        
  IR activ [km/mol]            628.5554            141.0469            141.1544       
  Char temp [K]               1126.5886           2573.2643           2573.8398       
  ----------------------------------------------------------------------------------
      1   O               -0.00  0.00 -0.11   -0.06  0.01  0.00   -0.01 -0.06 -0.00   
      2   H                0.12 -0.07  0.56    0.07  0.33 -0.15    0.40  0.60  0.07   
      3   H               -0.12 -0.07  0.56    0.15 -0.45  0.13   -0.38  0.52  0.10   
      4   H                0.00  0.14  0.56    0.79  0.01  0.02    0.08 -0.11 -0.16   

  Vibration                       10                  11                  12          
  Freq [cm^-1]                3858.2380           3992.8951           3995.5740       
  Irrep                           A                   A                   A           
  Reduced mass [u]              1.0155              1.0932              1.0932        
  Force const [mDyne/A]         8.9069             10.2690             10.2827        
  Turning point v=0 [a0]        0.1753              0.1661              0.1660        
  RMS dev v=0 [a0 u^1/2]        0.1249              0.1228              0.1227        
  IR activ [km/mol]            46.2626             630.1465            629.8142       
  Char temp [K]               5551.1455           5744.8870           5748.7414       
  ----------------------------------------------------------------------------------
      1   O               -0.00  0.00  0.02   -0.08  0.01 -0.00   -0.01 -0.08  0.00   
      2   H                0.49 -0.29 -0.12    0.62 -0.36 -0.17   -0.27  0.17  0.08   
      3   H               -0.49 -0.28 -0.12    0.56  0.32  0.16    0.39  0.23  0.11   
      4   H                0.00  0.55 -0.12    0.01 -0.08  0.02    0.00  0.79 -0.19   

  ==> Thermochemistry Components <==

  Entropy, S
    Electronic S                             0.000 [cal/(mol K)]        0.000 [J/(mol K)]       0.00000000 [mEh/K] (multiplicity = 1)
    Translational S                         34.771 [cal/(mol K)]      145.480 [J/(mol K)]       0.05541041 [mEh/K] (mol. weight = 19.0184 [u], P = 101325.00 [Pa])
    Rotational S                            13.299 [cal/(mol K)]       55.642 [J/(mol K)]       0.02119279 [mEh/K] (symmetry no. = 1)
    Vibrational S                            0.228 [cal/(mol K)]        0.956 [J/(mol K)]       0.00036398 [mEh/K]
  Total S                                   48.298 [cal/(mol K)]      202.077 [J/(mol K)]       0.07696718 [mEh/K]
  Correction S                               0.000 [cal/(mol K)]        0.000 [J/(mol K)]       0.00000000 [mEh/K]

  Constant volume heat capacity, Cv
    Electronic Cv                            0.000 [cal/(mol K)]        0.000 [J/(mol K)]       0.00000000 [mEh/K]
    Translational Cv                         2.981 [cal/(mol K)]       12.472 [J/(mol K)]       0.00475022 [mEh/K]
    Rotational Cv                            2.981 [cal/(mol K)]       12.472 [J/(mol K)]       0.00475022 [mEh/K]
    Vibrational Cv                           0.732 [cal/(mol K)]        3.063 [J/(mol K)]       0.00116650 [mEh/K]
  Total Cv                                   6.694 [cal/(mol K)]       28.006 [J/(mol K)]       0.01066693 [mEh/K]
  Correction Cv                              0.000 [cal/(mol K)]        0.000 [J/(mol K)]       0.00000000 [mEh/K]

  Constant pressure heat capacity, Cp
    Electronic Cp                            0.000 [cal/(mol K)]        0.000 [J/(mol K)]       0.00000000 [mEh/K]
    Translational Cp                         4.968 [cal/(mol K)]       20.786 [J/(mol K)]       0.00791703 [mEh/K]
    Rotational Cp                            2.981 [cal/(mol K)]       12.472 [J/(mol K)]       0.00475022 [mEh/K]
    Vibrational Cp                           0.732 [cal/(mol K)]        3.063 [J/(mol K)]       0.00116650 [mEh/K]
  Total Cp                                   8.681 [cal/(mol K)]       36.320 [J/(mol K)]       0.01383374 [mEh/K]
  Correction Cp                              0.000 [cal/(mol K)]        0.000 [J/(mol K)]       0.00000000 [mEh/K]

  ==> Thermochemistry Energy Analysis <==

  Raw electronic energy, E_e
  Total E_e, Electronic energy at well bottom                                           -76.31029532 [Eh]

  Zero-point vibrational energy, ZPVE = Sum_i omega_i / 2,  E_0 = E_e + ZPVE
    Vibrational ZPVE                        23.169 [kcal/mol]       96.940 [kJ/mol]       0.03692258 [Eh]        8103.570 [cm^-1]
  Correction ZPVE to E_e                    23.169 [kcal/mol]       96.940 [kJ/mol]       0.03692258 [Eh]        8103.570 [cm^-1]
  Total E_0, Enthalpy at 0 [K]                                                          -76.27337274 [Eh]
  *** Absolute enthalpy, not an enthalpy of formation ***

  Thermal (internal) energy, E (includes ZPVE and finite-temperature corrections)
    Electronic contrib to E beyond E_e       0.000 [kcal/mol]        0.000 [kJ/mol]       0.00000000 [Eh]
    Translational contrib to E               0.889 [kcal/mol]        3.718 [kJ/mol]       0.00141628 [Eh]
    Rotational contrib to E                  0.889 [kcal/mol]        3.718 [kJ/mol]       0.00141628 [Eh]
    Vibrational contrib to E                23.223 [kcal/mol]       97.167 [kJ/mol]       0.03700894 [Eh]
  Correction E                              25.001 [kcal/mol]      104.604 [kJ/mol]       0.03984149 [Eh]
  Total E, Thermal (internal) energy at  298.15 [K]                                     -76.27045383 [Eh]

  Enthalpy, H_trans = E_trans + k_B * T = E_trans + P * V
    Electronic contrib to H beyond E_e       0.000 [kcal/mol]        0.000 [kJ/mol]       0.00000000 [Eh]
    Translational contrib to H               1.481 [kcal/mol]        6.197 [kJ/mol]       0.00236046 [Eh]
    Rotational contrib to H                  0.889 [kcal/mol]        3.718 [kJ/mol]       0.00141628 [Eh]
    Vibrational contrib to H                23.223 [kcal/mol]       97.167 [kJ/mol]       0.03700894 [Eh]
  Correction H                              25.593 [kcal/mol]      107.083 [kJ/mol]       0.04078567 [Eh]
  Total H, Enthalpy at  298.15 [K]                                                      -76.26950965 [Eh]
  *** Absolute enthalpy, not an enthalpy of formation ***

  Gibbs free energy, G = H - T * S
    Electronic contrib to G beyond E_e       0.000 [kcal/mol]        0.000 [kJ/mol]       0.00000000 [Eh]
    Translational contrib to G              -8.886 [kcal/mol]      -37.177 [kJ/mol]      -0.01416015 [Eh]
    Rotational contrib to G                 -3.076 [kcal/mol]      -12.871 [kJ/mol]      -0.00490235 [Eh]
    Vibrational contrib to G                23.155 [kcal/mol]       96.882 [kJ/mol]       0.03690042 [Eh]
  Correction G                              11.193 [kcal/mol]       46.833 [kJ/mol]       0.01783791 [Eh]
  Total G, Gibbs energy at  298.15 [K]                                                  -76.29245741 [Eh]
  *** Absolute Gibbs energy, not a free energy of formation ***


    Psi4 stopped on: Monday, 05 January 2026 04:03PM
*** Psi4 exiting successfully. Buy a developer a beer!
2026-01-05:16:04:07,453 INFO     [psi4.driver.task_planner:285] PLANNING Atomic:  keywords={'SCF__INTS_TOLERANCE': 1e-12, 'REFERENCE': 'RHF', 'function_kwargs': {}}
2026-01-05:16:04:07,456 INFO     [psi4.driver.driver:523] Compute energy(): method=hf, basis=6-31g(d,p), molecule=default, nre=14.16436543905786
2026-01-05:16:04:07,692 INFO     [psi4.driver.driver:526] Return energy(): -76.30918500983584
2026-01-05:16:04:07,710 INFO     [psi4.driver.task_planner:285] PLANNING Atomic:  keywords={'SCF__INTS_TOLERANCE': 1e-12, 'REFERENCE': 'RHF', 'function_kwargs': {}}
2026-01-05:16:04:07,712 INFO     [psi4.driver.driver:523] Compute energy(): method=hf, basis=6-31g(d,p), molecule=default, nre=14.164510671357892
2026-01-05:16:04:07,938 INFO     [psi4.driver.driver:526] Return energy(): -76.30920370850617
2026-01-05:16:04:07,956 INFO     [psi4.driver.task_planner:285] PLANNING Atomic:  keywords={'SCF__INTS_TOLERANCE': 1e-12, 'REFERENCE': 'RHF', 'function_kwargs': {}}
2026-01-05:16:04:07,959 INFO     [psi4.driver.driver:523] Compute energy(): method=hf, basis=6-31g(d,p), molecule=default, nre=14.16494658956843
2026-01-05:16:04:08,186 INFO     [psi4.driver.driver:526] Return energy(): -76.30925493624784
2026-01-05:16:04:08,205 INFO     [psi4.driver.task_planner:285] PLANNING Atomic:  keywords={'SCF__INTS_TOLERANCE': 1e-12, 'REFERENCE': 'RHF', 'function_kwargs': {}}
2026-01-05:16:04:08,208 INFO     [psi4.driver.driver:523] Compute energy(): method=hf, basis=6-31g(d,p), molecule=default, nre=14.165673858444134
2026-01-05:16:04:08,438 INFO     [psi4.driver.driver:526] Return energy(): -76.30933685126377
2026-01-05:16:04:08,457 INFO     [psi4.driver.task_planner:285] PLANNING Atomic:  keywords={'SCF__INTS_TOLERANCE': 1e-12, 'REFERENCE': 'RHF', 'function_kwargs': {}}
2026-01-05:16:04:08,459 INFO     [psi4.driver.driver:523] Compute energy(): method=hf, basis=6-31g(d,p), molecule=default, nre=14.16669358865975
2026-01-05:16:04:08,687 INFO     [psi4.driver.driver:526] Return energy(): -76.30944648241768
2026-01-05:16:04:08,704 INFO     [psi4.driver.task_planner:285] PLANNING Atomic:  keywords={'SCF__INTS_TOLERANCE': 1e-12, 'REFERENCE': 'RHF', 'function_kwargs': {}}
2026-01-05:16:04:08,707 INFO     [psi4.driver.driver:523] Compute energy(): method=hf, basis=6-31g(d,p), molecule=default, nre=14.168007340955564
2026-01-05:16:04:08,934 INFO     [psi4.driver.driver:526] Return energy(): -76.30957975318915
2026-01-05:16:04:08,953 INFO     [psi4.driver.task_planner:285] PLANNING Atomic:  keywords={'SCF__INTS_TOLERANCE': 1e-12, 'REFERENCE': 'RHF', 'function_kwargs': {}}
2026-01-05:16:04:08,955 INFO     [psi4.driver.driver:523] Compute energy(): method=hf, basis=6-31g(d,p), molecule=default, nre=14.16961713198139
2026-01-05:16:04:09,186 INFO     [psi4.driver.driver:526] Return energy(): -76.30973151700401
2026-01-05:16:04:09,203 INFO     [psi4.driver.task_planner:285] PLANNING Atomic:  keywords={'SCF__INTS_TOLERANCE': 1e-12, 'REFERENCE': 'RHF', 'function_kwargs': {}}
2026-01-05:16:04:09,206 INFO     [psi4.driver.driver:523] Compute energy(): method=hf, basis=6-31g(d,p), molecule=default, nre=14.171525441879865
2026-01-05:16:04:09,432 INFO     [psi4.driver.driver:526] Return energy(): -76.30989560259528
2026-01-05:16:04:09,450 INFO     [psi4.driver.task_planner:285] PLANNING Atomic:  keywords={'SCF__INTS_TOLERANCE': 1e-12, 'REFERENCE': 'RHF', 'function_kwargs': {}}
2026-01-05:16:04:09,452 INFO     [psi4.driver.driver:523] Compute energy(): method=hf, basis=6-31g(d,p), molecule=default, nre=14.173735223662353
2026-01-05:16:04:09,687 INFO     [psi4.driver.driver:526] Return energy(): -76.31006486777113
2026-01-05:16:04:09,705 INFO     [psi4.driver.task_planner:285] PLANNING Atomic:  keywords={'SCF__INTS_TOLERANCE': 1e-12, 'REFERENCE': 'RHF', 'function_kwargs': {}}
2026-01-05:16:04:09,707 INFO     [psi4.driver.driver:523] Compute energy(): method=hf, basis=6-31g(d,p), molecule=default, nre=14.176249914443849
2026-01-05:16:04:09,934 INFO     [psi4.driver.driver:526] Return energy(): -76.31023125910666
2026-01-05:16:04:09,952 INFO     [psi4.driver.task_planner:285] PLANNING Atomic:  keywords={'SCF__INTS_TOLERANCE': 1e-12, 'REFERENCE': 'RHF', 'function_kwargs': {}}
2026-01-05:16:04:09,954 INFO     [psi4.driver.driver:523] Compute energy(): method=hf, basis=6-31g(d,p), molecule=default, nre=14.179073448616968
2026-01-05:16:04:10,179 INFO     [psi4.driver.driver:526] Return energy(): -76.31038587586465
2026-01-05:16:04:10,197 INFO     [psi4.driver.task_planner:285] PLANNING Atomic:  keywords={'SCF__INTS_TOLERANCE': 1e-12, 'REFERENCE': 'RHF', 'function_kwargs': {}}
2026-01-05:16:04:10,199 INFO     [psi4.driver.driver:523] Compute energy(): method=hf, basis=6-31g(d,p), molecule=default, nre=14.182210273059987
2026-01-05:16:04:10,425 INFO     [psi4.driver.driver:526] Return energy(): -76.31051903705522
2026-01-05:16:04:10,443 INFO     [psi4.driver.task_planner:285] PLANNING Atomic:  keywords={'SCF__INTS_TOLERANCE': 1e-12, 'REFERENCE': 'RHF', 'function_kwargs': {}}
2026-01-05:16:04:10,445 INFO     [psi4.driver.driver:523] Compute energy(): method=hf, basis=6-31g(d,p), molecule=default, nre=14.185665364489628
2026-01-05:16:04:10,670 INFO     [psi4.driver.driver:526] Return energy(): -76.31062034984811
2026-01-05:16:04:10,688 INFO     [psi4.driver.task_planner:285] PLANNING Atomic:  keywords={'SCF__INTS_TOLERANCE': 1e-12, 'REFERENCE': 'RHF', 'function_kwargs': {}}
2026-01-05:16:04:10,691 INFO     [psi4.driver.driver:523] Compute energy(): method=hf, basis=6-31g(d,p), molecule=default, nre=14.189444249086565
2026-01-05:16:04:10,916 INFO     [psi4.driver.driver:526] Return energy(): -76.31067877937583
2026-01-05:16:04:10,934 INFO     [psi4.driver.task_planner:285] PLANNING Atomic:  keywords={'SCF__INTS_TOLERANCE': 1e-12, 'REFERENCE': 'RHF', 'function_kwargs': {}}
2026-01-05:16:04:10,937 INFO     [psi4.driver.driver:523] Compute energy(): method=hf, basis=6-31g(d,p), molecule=default, nre=14.193553024540165
2026-01-05:16:04:11,162 INFO     [psi4.driver.driver:526] Return energy(): -76.31068271793563
2026-01-05:16:04:11,179 INFO     [psi4.driver.task_planner:285] PLANNING Atomic:  keywords={'SCF__INTS_TOLERANCE': 1e-12, 'REFERENCE': 'RHF', 'function_kwargs': {}}
2026-01-05:16:04:11,182 INFO     [psi4.driver.driver:523] Compute energy(): method=hf, basis=6-31g(d,p), molecule=default, nre=14.19799838467958
2026-01-05:16:04:11,418 INFO     [psi4.driver.driver:526] Return energy(): -76.3106200535835
2026-01-05:16:04:11,435 INFO     [psi4.driver.task_planner:285] PLANNING Atomic:  keywords={'SCF__INTS_TOLERANCE': 1e-12, 'REFERENCE': 'RHF', 'function_kwargs': {}}
2026-01-05:16:04:11,438 INFO     [psi4.driver.driver:523] Compute energy(): method=hf, basis=6-31g(d,p), molecule=default, nre=14.202787646880907
2026-01-05:16:04:11,663 INFO     [psi4.driver.driver:526] Return energy(): -76.31047823647415
2026-01-05:16:04:11,681 INFO     [psi4.driver.task_planner:285] PLANNING Atomic:  keywords={'SCF__INTS_TOLERANCE': 1e-12, 'REFERENCE': 'RHF', 'function_kwargs': {}}
2026-01-05:16:04:11,683 INFO     [psi4.driver.driver:523] Compute energy(): method=hf, basis=6-31g(d,p), molecule=default, nre=14.207928782464904
2026-01-05:16:04:11,910 INFO     [psi4.driver.driver:526] Return energy(): -76.31024434236035
2026-01-05:16:04:11,928 INFO     [psi4.driver.task_planner:285] PLANNING Atomic:  keywords={'SCF__INTS_TOLERANCE': 1e-12, 'REFERENCE': 'RHF', 'function_kwargs': {}}
2026-01-05:16:04:11,930 INFO     [psi4.driver.driver:523] Compute energy(): method=hf, basis=6-31g(d,p), molecule=default, nre=14.213430450327728
2026-01-05:16:04:12,153 INFO     [psi4.driver.driver:526] Return energy(): -76.30990513284908
2026-01-05:16:04:12,171 INFO     [psi4.driver.task_planner:285] PLANNING Atomic:  keywords={'SCF__INTS_TOLERANCE': 1e-12, 'REFERENCE': 'RHF', 'function_kwargs': {}}
2026-01-05:16:04:12,173 INFO     [psi4.driver.driver:523] Compute energy(): method=hf, basis=6-31g(d,p), molecule=default, nre=14.219302034077778
2026-01-05:16:04:12,399 INFO     [psi4.driver.driver:526] Return energy(): -76.30944711180963
2026-01-05:16:04:12,416 INFO     [psi4.driver.task_planner:285] PLANNING Atomic:  keywords={'SCF__INTS_TOLERANCE': 1e-12, 'REFERENCE': 'RHF', 'function_kwargs': {}}
2026-01-05:16:04:12,419 INFO     [psi4.driver.driver:523] Compute energy(): method=hf, basis=6-31g(d,p), molecule=default, nre=14.225553682986591
2026-01-05:16:04:12,645 INFO     [psi4.driver.driver:526] Return energy(): -76.3088565778332
2026-01-05:16:04:12,663 INFO     [psi4.driver.task_planner:285] PLANNING Atomic:  keywords={'SCF__INTS_TOLERANCE': 1e-12, 'REFERENCE': 'RHF', 'function_kwargs': {}}
2026-01-05:16:04:12,665 INFO     [psi4.driver.driver:523] Compute energy(): method=hf, basis=6-31g(d,p), molecule=default, nre=14.232196357100474
2026-01-05:16:04:12,890 INFO     [psi4.driver.driver:526] Return energy(): -76.30811967297402
2026-01-05:16:04:12,908 INFO     [psi4.driver.task_planner:285] PLANNING Atomic:  keywords={'SCF__INTS_TOLERANCE': 1e-12, 'REFERENCE': 'RHF', 'function_kwargs': {}}
2026-01-05:16:04:12,910 INFO     [psi4.driver.driver:523] Compute energy(): method=hf, basis=6-31g(d,p), molecule=default, nre=14.239241876903083
2026-01-05:16:04:13,136 INFO     [psi4.driver.driver:526] Return energy(): -76.30722242638288
2026-01-05:16:04:13,154 INFO     [psi4.driver.task_planner:285] PLANNING Atomic:  keywords={'SCF__INTS_TOLERANCE': 1e-12, 'REFERENCE': 'RHF', 'function_kwargs': {}}
2026-01-05:16:04:13,156 INFO     [psi4.driver.driver:523] Compute energy(): method=hf, basis=6-31g(d,p), molecule=default, nre=14.246702977968818
2026-01-05:16:04:13,385 INFO     [psi4.driver.driver:526] Return energy(): -76.30615079179019
2026-01-05:16:04:13,403 INFO     [psi4.driver.task_planner:285] PLANNING Atomic:  keywords={'SCF__INTS_TOLERANCE': 1e-12, 'REFERENCE': 'RHF', 'function_kwargs': {}}
2026-01-05:16:04:13,406 INFO     [psi4.driver.driver:523] Compute energy(): method=hf, basis=6-31g(d,p), molecule=default, nre=14.254593371102567
2026-01-05:16:04:13,632 INFO     [psi4.driver.driver:526] Return energy(): -76.30489067745557
2026-01-05:16:04:13,649 INFO     [psi4.driver.task_planner:285] PLANNING Atomic:  keywords={'SCF__INTS_TOLERANCE': 1e-12, 'REFERENCE': 'RHF', 'function_kwargs': {}}
2026-01-05:16:04:13,652 INFO     [psi4.driver.driver:523] Compute energy(): method=hf, basis=6-31g(d,p), molecule=default, nre=14.262927808524616
2026-01-05:16:04:13,887 INFO     [psi4.driver.driver:526] Return energy(): -76.30342796798881
2026-01-05:16:04:13,905 INFO     [psi4.driver.task_planner:285] PLANNING Atomic:  keywords={'SCF__INTS_TOLERANCE': 1e-12, 'REFERENCE': 'RHF', 'function_kwargs': {}}
2026-01-05:16:04:13,907 INFO     [psi4.driver.driver:523] Compute energy(): method=hf, basis=6-31g(d,p), molecule=default, nre=14.271722156731926
2026-01-05:16:04:14,138 INFO     [psi4.driver.driver:526] Return energy(): -76.30174853864739
2026-01-05:16:04:14,157 INFO     [psi4.driver.task_planner:285] PLANNING Atomic:  keywords={'SCF__INTS_TOLERANCE': 1e-12, 'REFERENCE': 'RHF', 'function_kwargs': {}}
2026-01-05:16:04:14,159 INFO     [psi4.driver.driver:523] Compute energy(): method=hf, basis=6-31g(d,p), molecule=default, nre=14.280993476749067
2026-01-05:16:04:14,388 INFO     [psi4.driver.driver:526] Return energy(): -76.29983826270545
2026-01-05:16:04:14,406 INFO     [psi4.driver.task_planner:285] PLANNING Atomic:  keywords={'SCF__INTS_TOLERANCE': 1e-12, 'REFERENCE': 'RHF', 'function_kwargs': {}}
2026-01-05:16:04:14,408 INFO     [psi4.driver.driver:523] Compute energy(): method=hf, basis=6-31g(d,p), molecule=default, nre=14.29076011257592
2026-01-05:16:04:14,632 INFO     [psi4.driver.driver:526] Return energy(): -76.2976830129814
2026-01-05:16:04:14,650 INFO     [psi4.driver.task_planner:285] PLANNING Atomic:  keywords={'SCF__INTS_TOLERANCE': 1e-12, 'REFERENCE': 'RHF', 'function_kwargs': {}}
2026-01-05:16:04:14,652 INFO     [psi4.driver.driver:523] Compute energy(): method=hf, basis=6-31g(d,p), molecule=default, nre=14.301041788747394
2026-01-05:16:04:14,877 INFO     [psi4.driver.driver:526] Return energy(): -76.2952686570385
2026-01-05:16:04:14,895 INFO     [psi4.driver.task_planner:285] PLANNING Atomic:  keywords={'SCF__INTS_TOLERANCE': 1e-12, 'REFERENCE': 'RHF', 'function_kwargs': {}}
2026-01-05:16:04:14,897 INFO     [psi4.driver.driver:523] Compute energy(): method=hf, basis=6-31g(d,p), molecule=default, nre=14.31185971804384
2026-01-05:16:04:15,124 INFO     [psi4.driver.driver:526] Return energy(): -76.29258104566046
2026-01-05:16:04:15,142 INFO     [psi4.driver.task_planner:285] PLANNING Atomic:  keywords={'SCF__INTS_TOLERANCE': 1e-12, 'REFERENCE': 'RHF', 'function_kwargs': {}}
2026-01-05:16:04:15,144 INFO     [psi4.driver.driver:523] Compute energy(): method=hf, basis=6-31g(d,p), molecule=default, nre=14.323236720533352
2026-01-05:16:04:15,368 INFO     [psi4.driver.driver:526] Return energy(): -76.28960599454342
2026-01-05:16:04:15,386 INFO     [psi4.driver.task_planner:285] PLANNING Atomic:  keywords={'SCF__INTS_TOLERANCE': 1e-12, 'REFERENCE': 'RHF', 'function_kwargs': {}}
2026-01-05:16:04:15,388 INFO     [psi4.driver.driver:523] Compute energy(): method=hf, basis=6-31g(d,p), molecule=default, nre=14.335197355291822
2026-01-05:16:04:15,615 INFO     [psi4.driver.driver:526] Return energy(): -76.28632925747502
2026-01-05:16:04:15,632 INFO     [psi4.driver.task_planner:285] PLANNING Atomic:  keywords={'SCF__INTS_TOLERANCE': 1e-12, 'REFERENCE': 'RHF', 'function_kwargs': {}}
2026-01-05:16:04:15,635 INFO     [psi4.driver.driver:523] Compute energy(): method=hf, basis=6-31g(d,p), molecule=default, nre=14.347768066336723
2026-01-05:16:04:15,864 INFO     [psi4.driver.driver:526] Return energy(): -76.28273649108313
2026-01-05:16:04:15,882 INFO     [psi4.driver.task_planner:285] PLANNING Atomic:  keywords={'SCF__INTS_TOLERANCE': 1e-12, 'REFERENCE': 'RHF', 'function_kwargs': {}}
2026-01-05:16:04:15,884 INFO     [psi4.driver.driver:523] Compute energy(): method=hf, basis=6-31g(d,p), molecule=default, nre=14.360977344531577
2026-01-05:16:04:16,111 INFO     [psi4.driver.driver:526] Return energy(): -76.27881320942276
2026-01-05:16:04:16,128 INFO     [psi4.driver.task_planner:285] PLANNING Atomic:  keywords={'SCF__INTS_TOLERANCE': 1e-12, 'REFERENCE': 'RHF', 'function_kwargs': {}}
2026-01-05:16:04:16,131 INFO     [psi4.driver.driver:523] Compute energy(): method=hf, basis=6-31g(d,p), molecule=default, nre=14.3748559074748
2026-01-05:16:04:16,358 INFO     [psi4.driver.driver:526] Return energy(): -76.2745447274828
2026-01-05:16:04:16,376 INFO     [psi4.driver.task_planner:285] PLANNING Atomic:  keywords={'SCF__INTS_TOLERANCE': 1e-12, 'REFERENCE': 'RHF', 'function_kwargs': {}}
2026-01-05:16:04:16,378 INFO     [psi4.driver.driver:523] Compute energy(): method=hf, basis=6-31g(d,p), molecule=default, nre=14.389436899686245
2026-01-05:16:04:16,605 INFO     [psi4.driver.driver:526] Return energy(): -76.26991609245457
2026-01-05:16:04:16,622 INFO     [psi4.driver.task_planner:285] PLANNING Atomic:  keywords={'SCF__INTS_TOLERANCE': 1e-12, 'REFERENCE': 'RHF', 'function_kwargs': {}}
2026-01-05:16:04:16,625 INFO     [psi4.driver.driver:523] Compute energy(): method=hf, basis=6-31g(d,p), molecule=default, nre=14.404756115755097
2026-01-05:16:04:16,852 INFO     [psi4.driver.driver:526] Return energy(): -76.26491200078272
2026-01-05:16:04:16,869 INFO     [psi4.driver.task_planner:285] PLANNING Atomic:  keywords={'SCF__INTS_TOLERANCE': 1e-12, 'REFERENCE': 'RHF', 'function_kwargs': {}}
2026-01-05:16:04:16,872 INFO     [psi4.driver.driver:523] Compute energy(): method=hf, basis=6-31g(d,p), molecule=default, nre=14.420852249523639
2026-01-05:16:04:17,103 INFO     [psi4.driver.driver:526] Return energy(): -76.25951669987136
2026-01-05:16:04:17,120 INFO     [psi4.driver.task_planner:285] PLANNING Atomic:  keywords={'SCF__INTS_TOLERANCE': 1e-12, 'REFERENCE': 'RHF', 'function_kwargs': {}}
2026-01-05:16:04:17,123 INFO     [psi4.driver.driver:523] Compute energy(): method=hf, basis=6-31g(d,p), molecule=default, nre=14.437767172864802
2026-01-05:16:04:17,352 INFO     [psi4.driver.driver:526] Return energy(): -76.25371386715557
2026-01-05:16:04:17,369 INFO     [psi4.driver.task_planner:285] PLANNING Atomic:  keywords={'SCF__INTS_TOLERANCE': 1e-12, 'REFERENCE': 'RHF', 'function_kwargs': {}}
2026-01-05:16:04:17,372 INFO     [psi4.driver.driver:523] Compute energy(): method=hf, basis=6-31g(d,p), molecule=default, nre=14.45554624818153
2026-01-05:16:04:17,603 INFO     [psi4.driver.driver:526] Return energy(): -76.24748647818282
2026-01-05:16:04:17,621 INFO     [psi4.driver.task_planner:285] PLANNING Atomic:  keywords={'SCF__INTS_TOLERANCE': 1e-12, 'REFERENCE': 'RHF', 'function_kwargs': {}}
2026-01-05:16:04:17,623 INFO     [psi4.driver.driver:523] Compute energy(): method=hf, basis=6-31g(d,p), molecule=default, nre=14.47423867943115
2026-01-05:16:04:17,850 INFO     [psi4.driver.driver:526] Return energy(): -76.24081664371438
2026-01-05:16:04:17,868 INFO     [psi4.driver.task_planner:285] PLANNING Atomic:  keywords={'SCF__INTS_TOLERANCE': 1e-12, 'REFERENCE': 'RHF', 'function_kwargs': {}}
2026-01-05:16:04:17,870 INFO     [psi4.driver.driver:523] Compute energy(): method=hf, basis=6-31g(d,p), molecule=default, nre=14.493897907279061
2026-01-05:16:04:18,102 INFO     [psi4.driver.driver:526] Return energy(): -76.23368542900454
2026-01-05:16:04:18,120 INFO     [psi4.driver.task_planner:285] PLANNING Atomic:  keywords={'SCF__INTS_TOLERANCE': 1e-12, 'REFERENCE': 'RHF', 'function_kwargs': {}}
2026-01-05:16:04:18,122 INFO     [psi4.driver.driver:523] Compute energy(): method=hf, basis=6-31g(d,p), molecule=default, nre=14.51458205494115
2026-01-05:16:04:18,357 INFO     [psi4.driver.driver:526] Return energy(): -76.22607264843656
2026-01-05:16:04:18,375 INFO     [psi4.driver.task_planner:285] PLANNING Atomic:  keywords={'SCF__INTS_TOLERANCE': 1e-12, 'REFERENCE': 'RHF', 'function_kwargs': {}}
2026-01-05:16:04:18,377 INFO     [psi4.driver.driver:523] Compute energy(): method=hf, basis=6-31g(d,p), molecule=default, nre=14.536354432415624
2026-01-05:16:04:18,611 INFO     [psi4.driver.driver:526] Return energy(): -76.21795663629518
2026-01-05:16:04:18,629 INFO     [psi4.driver.task_planner:285] PLANNING Atomic:  keywords={'SCF__INTS_TOLERANCE': 1e-12, 'REFERENCE': 'RHF', 'function_kwargs': {}}
2026-01-05:16:04:18,631 INFO     [psi4.driver.driver:523] Compute energy(): method=hf, basis=6-31g(d,p), molecule=default, nre=14.559284108175088
2026-01-05:16:04:18,861 INFO     [psi4.driver.driver:526] Return energy(): -76.20931399126252
